TITLE     = "numerical"
VARIABLES = "x"
 "y"
 "z"
 "sigma_xx"
 "sigma_yy"
 "sigma_zz"
 "sigma_inv"
 "eps_inv"
 "material"
ZONE T="Elastic"
 N=279,  E=807, F=FEBLOCK ET=Tetrahedron 
 VARLOCATION=(NODAL NODAL NODAL CELLCENTERED CELLCENTERED CELLCENTERED CELLCENTERED CELLCENTERED CELLCENTERED)
4.2607448892e+01
1.6167753343e+02
3.7586576553e+01
1.6595739340e+02
2.2010307793e+02
2.1991859360e+02
4.2898528220e+01
3.8473732285e+01
0.0000000000e+00
-5.8811236684e+01
5.8104826744e+01
6.5202397481e+01
2.2475925731e+01
8.4874651533e+00
3.9121715939e+01
3.4476740649e+01
3.1347796086e+01
3.0307421770e+01
2.9309669075e+01
3.7778392490e+01
5.9982453021e+01
6.5535971448e+01
1.2183594982e+01
2.5772414901e+00
3.3214469685e+01
2.1201287519e+02
2.0967444058e+02
2.0836869448e+02
2.0917812253e+02
2.1165167239e+02
1.8699123395e+02
1.5612679796e+02
1.3663430896e+02
1.4569533321e+02
1.6095179813e+02
1.5628674873e+02
1.5522794215e+02
1.5556680703e+02
1.5797435519e+02
1.6190836676e+02
1.8575409018e+02
1.5697122043e+02
1.4538722519e+02
1.5099441289e+02
1.6069491785e+02
-4.6678574412e+01
-5.7010261491e+01
-4.0918955549e+01
-8.0358759267e+00
1.6776777296e+01
7.2126346731e+01
8.4453909485e+01
8.8945276131e+01
1.0063874758e+02
1.2881776969e+02
-8.0441815962e+00
3.0164613792e+01
9.1366401526e+01
1.4587863191e+02
1.8486440512e+02
6.6885552751e+01
7.9395424116e+01
8.8441440163e+01
1.0241507648e+02
1.3225095871e+02
4.1154198406e+01
4.1859558373e+01
4.3551920136e+01
3.9870862093e+01
3.9914156763e+01
-5.1319254681e+01
-5.2049319914e+01
-3.4923358344e+01
-5.9258073110e+00
1.5785580346e+01
-2.4048498639e+01
2.6976446047e+01
9.0367187118e+01
1.4506902365e+02
1.8498815656e+02
-5.3861817077e+01
-5.9338769261e+01
-5.9043125283e+01
-5.9218789308e+01
-5.8280551920e+01
5.8570394535e+01
1.2873073771e+01
2.7195483919e+01
3.8502698665e+01
3.3552514291e+01
2.7504970350e+01
3.0283530466e+01
3.0445255453e+01
5.6868594685e+01
4.7612753740e+01
2.1128777989e+00
1.8616206471e+01
4.6555337363e+01
5.0416209243e+01
5.2777962730e+01
5.1041079589e+01
4.9437356892e+01
2.7321075833e+01
5.8162098011e+01
1.5073362260e+01
5.8778073418e+01
2.9634433675e+01
6.4714443253e+01
1.5176172906e+01
2.3896576412e+01
1.4643126429e+00
2.4685332400e+01
5.1632091480e+01
1.7723167215e+02
1.6744103955e+02
1.6540880108e+02
1.7495525207e+02
1.5543724750e+02
1.3512665039e+02
1.3460616136e+02
1.5335798616e+02
1.5313979424e+02
1.5252743664e+02
1.6516003430e+02
1.3803260211e+02
1.4565384108e+02
1.5080249640e+02
1.5594600365e+02
1.4034011731e+02
1.3896841931e+02
1.3751710724e+02
1.2335308610e+02
1.4670714082e+02
1.2786185599e+02
1.4815212158e+02
1.4694902592e+02
1.4027343290e+02
1.2442496450e+02
-2.5510002897e+01
-1.0594207217e+00
5.6751963609e+01
8.9282944069e+01
3.5656191503e+00
5.0174227780e+01
9.5358337042e+01
1.3782888597e+02
1.2599774985e+02
1.2247926333e+02
1.1501031702e+02
1.2627618126e+02
8.5098213272e+01
7.5186851307e+01
4.7741133895e+01
-2.0935499692e+01
8.3443529437e+01
2.7506054096e+01
7.2947730435e+01
1.0046739248e+02
8.8425691561e+01
7.8706672613e+01
8.6194439532e+01
9.1459454862e+01
1.1361428334e+02
1.2646397729e+02
1.2524468514e+02
1.2727798193e+02
1.3158993296e+02
7.3882927801e+01
9.3834276523e+01
6.4990182939e+01
6.4889467988e+01
6.7022094648e+01
8.4340845587e+01
1.1282191189e+02
6.5975442974e+01
8.6205800152e+01
9.8397979575e+01
1.0218090585e+02
1.0111464337e+02
7.6542587096e+01
8.6494456984e+01
7.7545583614e+01
7.9259115452e+01
8.5479997617e+01
-2.6306959399e+01
-1.3055814734e+01
1.1750736958e+01
3.4837399176e+01
6.1761003676e+01
7.3965651907e+01
8.6209471848e+01
1.0961706225e+02
-3.4593429538e+00
9.0616705259e+01
1.4338128244e+02
9.5034856185e+01
8.7067455851e+01
5.0933767971e+01
4.1588177664e+01
8.4797250842e+01
4.3473473062e+01
1.3128330576e+02
1.1776678990e+02
1.2023731048e+02
2.9873452357e+00
-3.9888003334e+00
1.1088211526e+02
1.7711120010e+02
1.7058919160e+02
-1.8569906021e+00
6.0621586081e+01
1.1983837579e+02
1.6395060134e+02
-3.1612957041e+01
-2.7313625244e+01
-2.9183974462e+01
-1.9268765996e+01
4.9064694560e+01
1.5258269698e+02
1.6955752036e+02
1.7963498428e+02
1.2313737552e+02
1.3536302459e+02
6.9495686752e+01
9.2372391759e+00
3.3224420898e+01
8.9611278727e+01
1.4219163600e+02
1.4282404696e+01
1.1388711895e+01
5.6196598463e+01
-5.6859143289e+01
-5.8803811141e+01
-5.4009135338e+01
-2.1185604137e+01
1.6918512098e+01
1.6210660135e+01
1.5785858341e+01
1.8241182572e+01
-5.4274730212e+01
-5.3560605370e+01
-3.1215476281e+01
-3.0080436598e+00
-5.9144826612e+01
-5.6237455896e+01
-4.5209368503e+01
1.1773509677e+00
-3.3081009913e+01
-5.1609661986e+01
-5.2007292338e+01
-5.3236254773e+01
-3.3616720619e+00
-6.7481307459e+00
-3.9779028972e+00
-4.4431383376e+01
-2.2467310002e+01
-2.8657962284e+01
9.9935556971e+01
8.9537998971e+01
1.0519495669e+02
1.0201358723e+02
1.0786530061e+02
7.7752323011e+01
5.0426269424e+01
5.4155624549e+01
7.6681792984e+01
-8.2880386355e+00
5.3396681388e+01
5.4774076894e+01
-2.2651488928e+00
6.8238848172e+01
7.7020786179e+01
5.2654374816e+01
9.7448275204e+01
-2.1449430443e+01
6.5288925212e+01
1.0198283758e+02
7.0424635205e+01
5.8759312702e+01

4.6287385423e+01
1.6445144518e+02
4.7568931145e+01
1.6139147179e+02
3.3250998158e+01
3.2061563881e+01
1.9621282316e+02
1.8763766980e+02
0.0000000000e+00
-3.4688364360e+01
4.1880901399e+01
1.5388107266e+01
6.8043604335e+00
-3.4560402884e+01
-9.8767542928e-01
4.0820008081e+01
3.2411050248e+01
3.2686672065e+01
3.4682442844e+01
3.9247787231e+01
3.9997122073e+01
8.7725334277e+00
4.6385054208e+00
-4.1217860314e+01
-8.7497221093e-01
2.6399739117e+01
2.5384028875e+01
2.4144619632e+01
2.6260975776e+01
2.8025479173e+01
6.4226634527e+01
8.2823355108e+01
8.8076571840e+01
9.9208642229e+01
1.2926202253e+02
1.5961682987e+02
1.5593798901e+02
1.5499888111e+02
1.5582059900e+02
1.5729149924e+02
6.2210878515e+01
8.1503615729e+01
9.0644462807e+01
1.0106301044e+02
1.2995321802e+02
2.4889678593e+00
3.5267394550e+01
8.5431476816e+01
1.2887686680e+02
1.6152230503e+02
1.6567700673e+02
1.3754070922e+02
1.3065075955e+02
1.4346732453e+02
1.5711603201e+02
-5.4699926616e+01
-8.1144818142e+01
-7.3610763312e+01
-3.5960379301e+01
1.7467986877e+00
1.5894954654e+02
1.3872215317e+02
1.3297693414e+02
1.4751781148e+02
1.5823956097e+02
1.9022129275e+02
1.8863264504e+02
1.8676213555e+02
1.8528540553e+02
1.8642094661e+02
-2.9899233042e+00
3.8418116653e+01
8.2727635712e+01
1.1940539693e+02
1.5240568773e+02
-5.2288110595e+01
-7.1051901707e+01
-6.3330606971e+01
-3.2798651054e+01
3.6557496754e-01
-4.0110940883e+01
-4.8108031699e+01
-5.2469848436e+01
-4.8236059176e+01
-4.1628264360e+01
3.4411964414e+01
-1.5837951459e+01
-3.3629295172e+01
2.1060627240e+01
4.2638614959e+00
9.5998389265e-02
-1.0822691939e+01
4.9123867043e+00
3.0211814946e+01
1.1566321061e+01
-1.2411925360e+01
-4.3686610533e+01
3.5122157298e+01
3.9177377120e+01
1.3800760066e+01
4.1958343049e+01
3.6233041181e+01
-4.8588204471e+00
1.3273493591e+01
-5.2544515801e+01
1.1096283573e+01
-6.8738426545e-01
1.3405535125e+01
-4.9121122837e+01
-3.8417524212e+01
-3.4082351969e+01
-1.2969022522e+01
3.2325231230e+00
4.9430956776e+01
4.8955582399e+01
4.9987658120e+01
5.2548910718e+01
7.3825737351e+01
8.3980863717e+01
9.4850935668e+01
1.1589743550e+02
1.2765628188e+02
1.2648499875e+02
6.4789024112e+01
9.4879205183e+01
1.0558105953e+02
1.2611224639e+02
1.2921555763e+02
8.1514789461e+01
6.3385227929e+01
6.8811664561e+01
8.3604961895e+01
1.0030371450e+02
8.0284066819e+01
9.9877332543e+01
6.5400685048e+01
9.7669525488e+01
7.9804748288e+01
-7.6019896937e+00
7.0217141550e+01
1.1977040663e+02
1.0381837596e+02
-4.3228700329e+01
-5.1099464612e+01
-1.9888481672e+01
1.8653852851e+01
5.6114647269e+01
7.7529343798e+01
8.8084920921e+01
1.1009503880e+02
7.7648363122e+01
6.8927554951e+01
6.4851223911e+01
1.4574100671e+01
3.3976010214e+01
1.1151716091e+02
8.6915925172e+01
1.0176255066e+02
6.3947995652e+01
1.4266291933e+02
1.2507258074e+02
1.2898365873e+02
1.4700511011e+02
1.5022872107e+02
1.4723373717e+02
1.4812678015e+02
1.5214581096e+02
1.4111882830e+02
1.3336353260e+02
1.6076751258e+02
1.5553687923e+02
1.4780153624e+02
1.2766040952e+02
1.4889495310e+02
1.5278687888e+02
1.2186021494e+02
1.3616883357e+02
1.3910490698e+02
1.3915230333e+02
1.2684701472e+02
1.2609292024e+02
1.3317627785e+02
1.2817053952e+02
1.2493704846e+02
2.1252919221e+00
2.4031713007e+01
7.1404511918e+01
1.1414240779e+02
1.1142352658e+02
9.1149757263e+01
9.1914456430e+01
1.1633962165e+02
-3.7458299999e+01
-2.5581440847e+01
4.7160384761e+01
7.5524316449e+01
7.6934796364e+01
6.6004314514e+01
-3.5763281094e+01
3.9963245647e+01
-5.3083672765e+01
8.4340341170e+00
6.8425513733e+01
1.0227185000e+02
-2.9690438531e+01
-7.0904455022e+01
-6.6386122212e+01
-6.0876043973e+00
-1.4948250023e+01
-7.4578298804e+01
-7.7859522329e+01
-5.6668524038e+01
-1.7317817759e+01
-6.2084424288e+01
-6.5847170145e+01
-7.0582406986e+01
-6.8851618512e+01
-8.2981848053e+01
-2.9188409221e+01
-1.5653175381e+01
-4.1346945786e+00
-6.4163214579e+01
-4.9440485716e+01
-8.5499246156e+01
-7.9661087513e+01
-8.2817515567e+01
-7.2784650619e+01
-4.1506632958e+01
-8.2259028045e+01
-7.9365242044e+01
-8.8591018018e+01
-1.2529195481e+01
-1.9719502302e+01
7.3480357204e+00
9.6207688087e+01
1.5966691155e+02
1.5455550637e+02
1.5130457661e+02
1.5327184222e+02
2.0209220508e+01
5.6528941980e+01
9.9560524949e+01
1.3356899341e+02
-1.4186380153e+01
-1.7169134108e+01
5.3103208914e+01
1.3015828984e+02
7.1521676604e+01
2.1389372099e+01
3.2643885584e+01
2.6204290124e+01
1.2620366675e+02
1.1589365871e+02
1.1875131967e+02
6.6984507847e+01
1.0306302684e+02
8.4928931058e+01
9.1860783624e+01
2.4769687180e+01
9.0409786187e+01
1.2581122599e+01
9.9181037054e+01
7.8909109358e+01
7.9247391857e+01
7.4836949223e+01
7.8910106173e+01
-4.4664251621e+01
-6.1493158436e+01
-6.3396214337e+01
-4.8087296273e+01
-4.5192025376e+01
7.2785515175e+01
9.1972036339e+01
1.6293148464e+01
-3.7538355368e+01
6.1101113512e+01
4.9910188841e+01
5.9509030269e+01
4.0232144235e+01

-2.3089073885e+00
1.5138736866e+01
1.9944608977e+02
1.8712884465e+02
1.9591378186e+02
4.3889694143e+00
7.5588145688e+00
1.9188203613e+02
0.0000000000e+00
2.1538472307e+02
2.0038792349e+02
1.9853602054e+02
2.0310331033e+02
2.1459699274e+02
2.0272055289e+02
3.1057719732e+01
6.4052944499e+01
9.7896112174e+01
1.3102780153e+02
1.6486273879e+02
-5.2495500154e+00
1.4347341672e+00
-5.7037966868e+00
-1.5180564821e+01
-6.2459819112e+00
3.7101680891e+01
6.8301898209e+01
1.0037167797e+02
1.3222686521e+02
1.6339315128e+02
1.9115660231e+02
1.9046089710e+02
1.9358417822e+02
1.9392027157e+02
1.9113471530e+02
4.6156346457e+01
7.3900058404e+01
9.9218180168e+01
1.2544902500e+02
1.5510477673e+02
8.1062828306e+00
9.3100605149e+00
1.1889370898e+01
9.5802796307e+00
8.9675504476e+00
-4.9330479214e+00
-3.1967576045e+00
-4.3459220491e-01
6.2143758270e-01
1.7006340554e+00
8.6147519371e+00
4.8211381371e+00
2.0136895338e+00
4.6654552071e+00
1.0228566508e+01
-3.5951527913e+00
-5.8140156324e+00
-7.6695055010e+00
-1.0056482343e+01
-4.9122620208e+00
1.9371111389e+02
1.9670685270e+02
1.9797976366e+02
1.9482640557e+02
1.9242351419e+02
4.0663304691e+01
7.2434796644e+01
1.0115109915e+02
1.2852061009e+02
1.5919315376e+02
2.0803047470e+02
2.0175684296e+02
1.9875332273e+02
1.9788659746e+02
1.9578562998e+02
2.1740856096e+02
2.1414332940e+02
2.1112695492e+02
2.1089883005e+02
2.0461093648e+02
3.1787082525e+01
6.3096293671e+01
1.0042565840e+02
1.4361653989e+02
1.8038404447e+02
1.7197173231e+02
1.7222393173e+02
1.7657651400e+02
1.7657729351e+02
4.3021422099e+01
7.8088746108e+01
1.1268172353e+02
1.4744003291e+02
2.4132401468e+01
2.8119863220e+01
2.3800066641e+01
2.4947368238e+01
5.2786430087e+01
1.1619509223e+02
1.6829598628e+02
1.4456207405e+02
8.2949428382e+01
1.3894381992e+02
1.0040407625e+02
8.9531638230e+01
6.2739163688e+01
5.4192331747e+01
1.3964488305e+02
1.3380232989e+02
5.8114296568e+01
5.7614973530e+01
9.3843183209e+01
1.1709876620e+02
5.8073364962e+01
8.5018977205e+01
1.1420485153e+02
1.4753937488e+02
1.6227103199e+02
1.6134115627e+02
1.6180974223e+02
1.6352713067e+02
5.7541222158e+01
1.1288429209e+02
3.5992469725e+01
3.7721651316e+01
4.6051470412e+01
8.7169946791e+01
1.3871375289e+02
3.9274668921e+01
9.5513518474e+01
1.2983643880e+02
1.3600105018e+02
1.3118092223e+02
6.8163199515e+01
1.0209860496e+02
6.4756476671e+01
7.6884926667e+01
1.0323215590e+02
-4.8901741411e+00
-1.2406121163e+00
3.6889820976e+00
-1.2813464132e-02
-8.3853966808e+00
-9.1287755195e+00
-8.4982669988e+00
-3.1792633893e+00
2.3145044707e+00
6.8752409240e+00
5.7585616304e+00
5.0298493662e+00
-1.3014045627e+00
-1.1492991671e+00
1.5305703754e-01
-6.4812794702e+00
-3.0971729461e+00
1.7322536725e+00
-7.4997985706e-01
6.1853537914e-01
2.0968609303e+00
3.5331963130e+01
3.6950140848e+01
3.8591729736e+01
3.8329706771e+01
6.2945206732e+01
8.9103329053e+01
1.1603589878e+02
1.4589645565e+02
1.6185372606e+02
1.6549271755e+02
5.2818041246e+01
1.0967005681e+02
1.3396641404e+02
1.6686175661e+02
1.6507443881e+02
8.3720848877e+01
7.0146703648e+01
7.2370593552e+01
1.0311980357e+02
1.3392316817e+02
1.0025261260e+02
1.3981640738e+02
6.5147239542e+01
1.3354043957e+02
1.0631162175e+02
2.0569671453e+02
2.0348406225e+02
1.9789259566e+02
1.9633104329e+02
1.9763537749e+02
2.0119563113e+02
1.9831488766e+02
1.9702382471e+02
2.1139248715e+02
2.0581968154e+02
1.9738267828e+02
1.9677575490e+02
2.0022596245e+02
1.9739948921e+02
2.0918248377e+02
1.9889363528e+02
2.0922596955e+02
2.0398860566e+02
1.9521058079e+02
1.9768154761e+02
2.0880266008e+02
2.2964594064e+01
2.1860904111e+01
4.3834705672e+01
1.1610747363e+02
1.8659315101e+02
1.8434067302e+02
1.8153196589e+02
1.7758729524e+02
4.8921416258e+01
7.9751117027e+01
1.1560022635e+02
1.5166049421e+02
2.3145393853e+01
2.0927536631e+01
8.0034589438e+01
1.4758142880e+02
1.0306439290e+02
5.5676258875e+01
6.3726367844e+01
5.4118790619e+01
1.5504148855e+02
1.4856639299e+02
1.4610471014e+02
9.1273423479e+01
1.2516308285e+02
1.1465436271e+02
4.0875343640e+01
1.1717554255e+02
1.7692370381e+02
1.6573252329e+02
5.2531248318e+01
8.7569235919e+01
1.1812698400e+02
1.5055678617e+02
2.3810635131e+01
2.4947472013e+01
2.8672950471e+01
3.5985929878e+01
7.7824101157e+01
1.5254803861e+02
1.6735042732e+02
1.6960373177e+02
1.2950040737e+02
1.3858224780e+02
9.6737583616e+01
5.5299902511e+01
7.2787528045e+01
1.0667507532e+02
1.3803958099e+02
5.8801719750e+01
5.7578962945e+01
8.8879859744e+01
5.2489159272e+01
9.6111542366e+01
1.0065156504e+02
1.4951242852e+02
1.5041038413e+02
1.4109817804e+02
1.5418034631e+02
9.9074521986e+01
9.7056342439e+01
4.3215484761e+01
4.0102750711e+01
9.1423200208e+01
1.6230071231e+02
1.5904546538e+02
4.6361371360e+01
4.8070521825e+01
4.5398100860e+01
1.0463680188e+02
1.2471199375e+01
1.7162083439e+02
1.8310460551e+02
1.0942542195e+01

-520883195.4766992927
-301389314.2424452901
-105684465.6880498230
-1573262893.1373448372
-1336296892.5627262592
112048240.4181163311
777289344.0660880804
-1512468936.0299074650
-129221903.4761408269
-2576247461.4039311409
521012853.2488355637
756509650.8142713308
-1780454799.1367909908
-1217756256.9997560978
525275699.5085301995
899312421.4204504490
-96096948.0390117615
-287748731.0246068835
-388406296.4350356460
-66796257.2044868991
-4693753742.7908258438
692732269.5612117052
-341098924.8850682974
-1786229455.6287810802
65915116.9663464203
-516739100.1991094351
584449260.8715380430
-447046060.9416604638
-406146497.8290215135
1158630040.4762544632
85555873.5453528762
-309833990.1511799693
140280973.4010739028
-2782266504.7119679451
-2255079233.9431014061
-333387528.7611326575
-799595772.5434578657
-144331350.3770768940
-607864922.1906111240
-437623887.3127754927
170247100.8196519911
-277478277.1798455119
663745938.6227643490
-1999014477.0260443687
-125171902.8986564726
630452348.8410003185
-383158227.9136145115
-2137882450.4133272171
-759003077.9503339529
-557613938.7320401669
-553296795.9932216406
-138868399.7508208454
1703856174.2519800663
-1787914969.9279742241
190377497.2139534652
1015160170.7420591116
-194352946.9590541422
399783951.3710083961
-564711697.5997285843
-32625052.6575242803
-611345572.4605438709
-326162798.4445831180
1022729766.1227909327
-92053552.4431455731
-2403963533.4982481003
-1685998178.6046197414
110466459.6088431478
-228415600.0115032196
-2416855566.7753129005
5377606981.0717496872
-4196146133.7667512894
914047398.2782796621
-332973386.0493140817
566310907.6626421213
-1974940913.9224171638
-512129080.1350663304
-180333226.1124579012
-154743849.0887239277
84287272.4412863106
1037788700.4330738783
-259028008.2250949442
-1807918891.2890305519
-98468339.6019398868
75461448.8143348843
325432867.3157150745
142770203.2809817791
-384701488.5678188801
61675965.5316668749
-270229324.1205399632
-2128436524.4095509052
-987075361.9016486406
-1404760257.5983295441
40194611.4065566808
-546466875.7966171503
116658776.2202449888
137408819.1741431355
-1688650087.3836216927
-615350121.6249729395
-804519026.5388449430
-888097967.2607167959
467332245.7091342807
486239007.4987226725
470222143.7529506683
237540223.3255035877
286142727.7072482705
856147584.5903599262
980848010.6384747028
221417947.7383978367
-507140648.8708966374
-1870721118.0065548420
-550663460.1577714682
-115597087.1622634381
-649281000.1687613726
-2269498338.8639602661
-373329259.3247406483
235742616.5367252529
-1287383604.8379180431
1029829290.2350761890
-814970864.0409988165
1057964405.0831278563
-671472016.8575520515
-696468619.3987261057
372401301.3796519637
473675881.8572012186
129376322.4208142012
468438363.7975082994
-698149784.5206707716
107919842.8154445738
-110239621.9872675538
-171933926.6395845413
-474421280.2392814159
-2214855746.3965868950
-707907623.4805546999
-2436927387.0623698235
-7163850.0177058047
-2091271345.7295536995
1164365171.0441596508
1920305528.7725625038
-1451323331.8038167953
-256477610.7770360708
-170514329.5295023620
-1071309328.3015143871
133691094.3635285199
127020255.7023843229
292037269.7385113835
195231264.2859663367
-14644744.2318176888
229706435.4202251732
-1019295670.3559044600
208201168.1342543960
-1100378059.9094045162
-4232446108.3662490845
880209518.4270553589
-541302077.3657234907
-722746682.7297236919
297512521.7604218721
106855652.5359373093
77856617.1086967140
-2642323767.4692683220
20494014.6084203906
-955144514.5730851889
-1137871504.4889149666
1227063410.5700268745
1120843335.3000195026
2617984291.6270794868
-413620927.7726099491
-390638842.9588108063
-31984272.5116083734
-401961008.5344878435
105767275.1446920633
-1392526204.6172630787
1008441937.3667852879
-1320640757.2488422394
-1579089432.2020430565
-2305242145.7893848419
-312729302.7491671443
-279451446.8333887458
162014559.2930974960
-249993713.6629977822
-2572373239.7106094360
-160271211.3259040713
-150987611.8198423982
-2773271467.6715302467
137093702.5504447222
-1547504945.5683043003
-24995260.6729005054
-294547072.7848603129
40719690.0859691575
-683185216.0546908379
-220795491.2486046255
-881142776.7444505692
-77173827.5632157177
248007214.0359075069
-40839420.4600750506
-1806161747.1422433853
-2430871732.2074165344
-62861283.4483053759
1047414684.9665230513
252823780.9803126752
309743121.7304485440
-1536252352.8881368637
1672700978.0043349266
956053544.1941388845
-4347945902.6592864990
-594854516.9143780470
-1824609108.1132748127
1067769088.0490480661
-2716134619.8739805222
-78143070.9848958403
-167348236.8991987705
-2135422358.6299052238
-16652419.5053013582
-605422394.7385399342
-1607426360.6083064079
-275046276.9204807281
126865174.2413655072
-2301611166.9498686790
296973748.4954575300
322798093.3272785544
-178822828.3243465424
780273775.4583368301
-2374009504.1336550713
835458537.7654498816
-48399300.5022233576
626788999.2987056971
-1809025619.4100120068
731477243.9626868963
364652489.2564812899
681382535.6715664864
-1426108989.9875793457
-274592518.2864093781
-115576167.7903293371
-435023294.8897918463
1016088091.0252575874
-66804527.1875449717
725879429.2941555977
-1230673939.4004178047
191924488.6075714827
-115453157.2999344319
130582529.9102682024
502122880.6447512507
-2036110366.3782424927
-1391984797.1296439171
-483290189.3188853860
-400705614.4884467721
782422636.5994210243
-741566209.7324037552
-2316726327.3091907501
-248914581.3043164015
-667993952.0025726557
-1961808359.5288090706
157986066.3176463544
-448086055.9699019194
-110058086.6400029361
-109276820.8212043345
-1904330520.1230177879
223248962.0533420444
-835499435.7765939236
-77543274.8706155270
-101495916.6027906537
-353497618.6440953612
-868207385.9859679937
713485187.6362279654
373910041.4837369323
1483353658.0406570435
417247137.3864017725
304577222.8962036967
-1373908984.8563442230
-2291628113.7241072655
358317181.8036109805
318838877.8263999224
-13354540.3025527168
-4260067169.3991894722
-60238893.6232506484
-428938255.4004829526
-366001237.2764070034
-155944709.6334293783
-853585673.3697537184
-1417807402.4335315228
230312508.8976565003
838548331.5953539610
25614477.4542823732
-242358958.2727743685
-422838555.7182355523
-1168031073.5882894993
-2941687672.6565909386
-1001629628.2376497984
282608677.7333655953
-686670069.1623584032
458325742.8995737433
-2125042558.9652605057
-1762236597.5765781403
1284263773.8920278549
-867635071.5132846832
330467113.2328590751
-83617532.8997257054
-315508736.9663237333
-2012735772.7204923630
-714811078.6684551239
-818496139.4529231787
-162708473.6268190145
-110992257.9180338681
-103996520.7514370829
-1255344847.1144006252
989669849.0654672384
-1902622968.5354111195
-806392175.7485333681
-2593014654.8150076866
331308939.2802337408
-155965001.2117003202
-516728690.2467263341
606073156.4920328856
-435610154.1526621580
-846868675.8191776276
-384241298.4091288447
333548162.6232296824
1072584534.3792819977
866653473.7676935196
-2157022343.2436256409
379760605.1358156800
316801570.7817447782
284163602.4202857018
-64032958.5776285306
-2648399482.8452339172
-385974718.9031090140
623794036.0626920462
1655618780.4815435410
-481857218.6647592187
2116982431.0662319660
-1301122739.1198797226
-261074098.2073374391
-177648401.0355279744
-654308919.1401580572
2041170986.4155759811
1026086850.3553102016
188110811.3881696761
-1745020294.7406258583
245875312.5258406401
-2376191693.1612300873
298242976.2727941871
-271873598.3572376966
1295650482.5020232201
-300244985.7464667559
92887098.3186184317
-114992610.2471423745
534877632.1777884364
2329354368.1500759125
-193139069.5779808462
-1117124623.0522975922
276611077.8923937678
-526488599.3722934723
-860642604.9438978434
-572162240.6727553606
-970299485.3092328310
766255949.4110271931
1365148575.8138458729
-389116826.9689154625
-65712083.1876801476
246173971.5480075479
-2031784829.0146670341
-700527959.6159784794
113937853.3938973397
155509559.5674861670
1234753875.7567763329
-35378914.6258642450
2751793462.6608333588
-36093492.6941732839
559289994.0072020292
2142314810.5480780602
1613701740.4269537926
-1363865001.5805621147
559221868.3775246143
-1039425482.1762378216
360076859.8224767447
408937648.9838340878
108376423.6193083525
-411752557.3534533978
-2335104023.0393190384
-2401960705.1166176796
-1338165380.4132840633
-2418699075.9678039551
-123740863.5393920988
67155908.8209329098
-2389377560.8823180199
-815990920.7907224894
-2640906192.1978468895
-1383551466.3098127842
428534574.1140545607
1016220896.2088319063
229258485.4148507714
-423925066.4672133327
472136757.4851098657
-585023465.5180845261
-394857526.0361958146
-509087683.4017505646
-647495159.0604581833
164776660.0897347927
-116572645.3214530051
320324292.8425862789
-1689015453.9220345020
349068031.1691288948
-37160627.0103125945
-940087870.5721958876
-95855419.8645844012
-319368715.6875168085
-104398721.0507774502
-1991212758.2591943741
-750259775.2630945444
463380852.0480460525
371962105.8401630521
-282447410.3756937981
1578922544.8481447697
-507560989.0582920909
-1752561534.3195867538
-236004744.1090526283
-1676042028.9316816330
-611281683.1549280882
-300640274.4953817129
-396729870.1627143621
-1199508609.3586139679
-1545637913.9904701710
-789095339.1060005426
-444043108.5647475123
-78501232.4352847189
-1862515155.1463687420
-952318829.1505185366
-1448178649.1598212719
41820331.2213032618
266512542.2292559743
725596799.1163830757
-1714436513.8125865459
-2173010190.3542399406
-524649224.7805490494
-2361104759.8803319931
-1225683021.6491935253
-1783064600.2039942741
147781945.1219898164
-2157123543.8862485886
775935496.4691296816
-817232976.3781964779
-141668708.3295777440
504868618.0760793686
907963727.8739515543
118711443.7846977562
134365086.6296345592
293913017.8945637941
-1103829689.2984213829
-278670959.7979031205
312882022.1533877850
-252355047.0492326915
-1346744660.4347100258
1926893948.6219117641
431026557.6791978478
38782254.6291103512
-1237431453.9164395332
-504094707.8239334822
-6302079404.0901594162
418082238.9514865279
-596400831.0721676350
-485088126.6153088808
-1483508413.6121957302
1203319214.8661606312
381515107.6414785981
2173148661.8109669685
106147446.7713691592
521793048.4364440441
-118611038.8512770236
401832632.8107392192
-38597966.4971389174
444268016.9190883636
1275505507.5514187813
630320994.3535495996
862467780.6193751097
428880247.2649865746
-386827499.5789739490
-341905687.4803441763
83806115.5362561792
746516578.6794620752
1676930634.7518489361
-576483268.7192502022
454014937.5235694051
240128631.9117830992
569496593.5572776794
-924685638.2662316561
-150593189.8707101345
-2046429734.4118325710
-1559196708.4108083248
-540689905.5601251125
-48908621.1964887604
-48599207.1228208393
1663136209.7706973553
2429822547.4128508568
128957603.0028713495
-313006459.4537218213
467288.9136660200
-63268094.6889210194
562308150.3556863070
1481033311.5967419147
2008132611.3282630444
165343138.1280432343
-700043644.6788128614
-2288930837.2658791542
161972700.8129599988
-270084930.2915996313
-509569262.4757682681
-1390042170.7277574539
846198356.7713198662
-268882411.0805918574
2496935444.7050147057
-253633882.7643747032
-126504203.7926449329
-233198011.4779420197
-688907885.9019205570
1193220040.8484063148
349357511.1697191596
-583639231.2790819407
-464449354.9892293811
-1494888137.4547538757
-1844855780.9672067165
-532979089.8603566289
133932774.7062155604
-108436239.2729240358
-2121622075.1371686459
88776213.9061182886
463125417.2690873146
310329419.6692083478
1653043336.5254695415
1025097277.7566022873
-1977789927.3386247158
562705301.8068794012
1092763547.3764495850
22674434.4913509712
1019822928.4485479593
579451286.2901203632
1649948815.9311473370
-99107356.5778599977
385085554.6199783087
344710881.8524841666
-106201448.8972619623
-533220527.6585384011
-2662573374.5474166870
1804046931.9636130333
-106242183.2697634697
-2720856351.3326363564
-637280459.7799910307
-917042146.8603991270
-802253504.8389312029
-563934702.8767739534
-409968769.9817237854
-2281480713.3076872826
-232303204.2621137202
-193167743.5520051420
-1566254582.7228498459
-156640081.9989171624
2299508410.3408207893
-121689069.5219692886
1845737925.3955700397
506687155.6535050869
-157945101.5631395578
251509332.2138899863
465971834.1869328022
-180051026.1728687584
204238935.0219717920
21004501.3466694281
-153240642.6045018137
212651751.3983941376
-1573744576.3125944138
358220429.4502646923
2021177290.9803686142
-441840489.1723341942
860238366.1846612692
2689908634.7751793861
1167192260.1001772881
328603959.4236687422
71931809.5690773129
1209075388.6626880169
1070922699.6788470745
-313736800.3660604358
401441600.8454536200
1381702663.2598202229
-374084378.1191645265
-349020114.9052376747
-2178920353.9091038704
-4160838916.7884879112
-391863516.1823781729
-381604627.6249781847
-1491919614.6111912727
-644026007.9091708660
-688416699.5381832123
2340803045.9008989334
-1304152021.8488421440
-865461025.3028005362
-661766643.0987383127
-560581257.2147616148
-510817761.6268941760
1939029174.7714364529
226972365.2460126579
681491681.5328720808
1110057127.4197490215
59748187.0063600689
-190974443.8327780068
37376347.3971463367
768926173.4708722830
-1655688709.9109287262
116069195.1520788968
13404622.8076633792
-2557647988.5030751228
-107107303.1109654605
224373995.4248335361
-82959165.2491512150
1690426213.1170344353
-1804879316.3976998329
-705798447.5830216408
-1739228023.2584905624
-292242774.7690007091
1253881298.2126197815
973087723.6737748384
-149171381.8292472661
719569212.9596520662
58092357.7079060301
-1904600521.9090530872
-85204691.5079503655
-280592465.5446262956
-1395797696.3833515644
1593313707.0740320683
807375743.0708644390
-1422407026.6118016243
-4962446423.9379186630
-639232327.4283322096
-1181921566.8959348202
76157927.0603046268
-2257160479.3685846329
422485822.1263185740
-1576805239.1598196030
-486598689.8790564537
326395728.1194380522
182036184.6810935140
-997665897.4848314524
-330967364.4971637726
-517123735.4705176353
2067018992.7207939625
179338535.7619042397
393454926.0034350753
1130033443.8043432236
928408389.9473606348
130336696.3691824079
886832691.8010413647
109278610.9564508051
555769134.8678227663
29376452.1151699945
247504988.7022314072
-777829975.1717818975
-40817945.0129682273
-764498852.1169713736
-487687744.5156767964
-1173257014.3158199787
-153069389.5208790004
-4345684877.4559440613
-123221776.2419670522
-513799559.4614745975
-370244530.8748109937
-758989081.1147558689
-1812780359.4347529411
-372255276.0338813663
-324253633.8255630732
733097731.6985965967
-448324650.6808892488
-856868641.2111933231
99129069.3336022794
-1457586722.2553122044
-2573967716.9557518959
262305896.3659035563
1380385750.5874955654
-192572604.7783243358
2200315159.8531742096
197722823.5685089231
558118938.3445049524
397717242.1036333442
487244803.0530903935
786412176.5229959488
-158783076.0766687095
653103327.8588906527
-4490792822.7445182800
-493848113.0674123168
-4420894345.3392314911
-3763417084.9469890594
-1231967799.6784563065
-231311370.9896482527
582680423.9499559402
15835468.4651155043
-896025348.5378328562
-138715534.8383782804
-169133641.9591024220
-328385669.9017909169
-1802557697.0600101948
-391444821.7780857086
-869808109.1443037987
910032677.5383746624
-450503747.8983321786
-1389360956.5126919746
-606192933.0105400085
-641059753.4524770975
84700808.1490812302
-1426711880.4237627983
-1398131477.8121113777
586328345.0384967327
-1816690488.8405816555
176985494.2360184789
730915069.3604509830
587970852.8687916994
-1166456545.1340780258
37050781.8312868848
264884933.4795587063
-483436365.3796358109
-914823891.1354150772
-944408075.3244810104
318469391.2943734527
-1544606697.5315811634
-861886661.2170366049
-879850720.6137170792
-1988602290.5360634327
267813495.5374933481
955469267.3902218342
1517793125.8500008583
195737620.2430067956
2232069741.6699132919
1265061222.3210248947
455644259.5232295394
375837297.8422694802
-47925710.2542598099
-551590500.0265245438
56683264.0936324820
1530718757.1039192677
1526229861.1817851067
-1460804122.9943139553
-765801747.4667371511
545458455.0926351547
-521170475.7977868319
-1763679196.6261296272
-263510024.0693492591
2338989041.4572424889
-1825331422.7666406631
-2816755206.4148430824
287970813.0769286156
-3996904734.9761795998
922615503.5888848305
351987265.6983279586
152761615.3143572509
-1228685142.1086869240
-440832253.8973330259
509327866.5379778147
-30299022.5817223862
-722329612.5126903057
554804354.6332631111
618479736.8926659822
-599592641.1541551352
1398220822.3126947880
-1809131175.7057032585
2489130247.5494961739
1319700818.9051709175
2856492964.6663231850
726048640.4777896404
-16210266.9744546637
-488639930.0465712547
-2697536931.3583354950
560527197.8207219839
1671557491.0135998726
-906053744.2943280935
2455964656.4329743385
-1930286202.3499152660
2359622296.1344656944
-121082836.0317009389
-686958785.8887569904
-2135780053.0206391811
-445809163.6393980384
1763940617.1369943619
-1212480221.4159655571
408373839.1972537041
928510192.8354606628
-535682917.8386726379
1712181033.0003108978
758667360.1698596478
-33948053.7294903547
135256501.0342825055
24502914.5480246432
3057703339.4986171722
786193689.0939050913
1981311660.4378869534
1584576488.9607145786
1861515235.2276849747
2066958428.3752238750
2128852694.4511544704
517744339.4574106336
-343244795.0810583830
2693244062.4079375267
-263142341.8091575205
-862141168.5806330442
-528872072.7959352136
-1021593102.0442487001
-755764684.7177885771
-475300702.4182874560
-1738514993.4157397747
155513198.6590439081
1879930321.2265210152
-924062545.6944267750
-312520391.0252119303
-731695489.7219747305

-1108341543.8290066719
368146595.4171301723
-1190500093.4762525558
-729344192.7065867186
-601785536.1350169182
-1716109635.3017609119
-170935467.2810252607
383701949.3131967187
85893664.3928656429
-50093044.0929637551
-775665314.1166454554
471301125.2452311516
194147384.4841645360
811792163.2872682810
-79438737.0697435141
-623075788.1237281561
1139030477.3479812145
-757713206.0835045576
-325564030.6638129950
-50650354.6965958327
-358828527.1059332490
-984508312.6851449013
-631507862.4081634283
-764775247.7491021156
-1882037939.5815362930
-1899634710.2143783569
-561372675.9025505781
66717313.5558332279
-501977298.0736472011
-36230638.3786562905
-318459584.6824778914
-274080792.5581837296
-1100061099.7941997051
400838662.9874445796
458018417.6630510092
-1855450688.6915900707
676430702.5937386751
-2063425364.3640413284
135631038.5042162538
-1366988347.8997707367
-57815141.4716095552
-573603732.3920567036
223029587.4935072362
316556543.6102573872
-311456204.8826058507
-1999552023.6607041359
-556706312.7702639103
404218848.3344419599
-263082538.6103138030
-1610352201.5115299225
136950196.2452191114
-2352514216.2191720009
-161977991.0290445685
450121552.0009207129
-1571592212.2705650330
-142480204.8791600466
15142388.3146930821
-834310040.5660004616
312279663.9845992327
-2259683655.3327469826
134127441.3236627430
47499346.7114683464
-424432669.1410922408
1222307633.9047646523
34256943.3823892549
72847689.0628577620
829061105.6112084389
774002330.6052912474
2015293224.9604165554
560484395.1854581833
-424353848.7149617076
-345656699.8674240708
-420637946.3917461038
-214134568.1115568876
-103276220.0818365067
282708863.5240375400
-81458107.4549398124
701710705.6519221067
-156430566.8210848570
386334495.5441218019
-51010622.7361354306
415046141.8670089841
-1862401878.8552737236
-631439417.8985222578
-941937381.3211470842
-2247070370.0092754364
127100886.5488267392
-591935717.4178477526
58415529.8295980766
114747070.1535332799
2295008138.0206537247
-2550031020.2987027168
-446152270.5240423679
134999882.8587138355
-855130102.8481318951
-803339915.4693781137
-1150819527.5879666805
-133206218.5124270767
2815938967.5287165642
-42536426.4474648014
-1511443013.5648314953
-1231759057.2576851845
-1706531469.5033280849
-302507020.6574219465
-567221324.1802526712
-51217204.0936140940
-258327104.6875193417
-300489803.6702635884
72636157.3186058700
-43200477.7921576947
-1232704924.8045613766
150161127.7409446239
-219218827.4114589989
407847057.9833915234
-254142016.8222379386
-342085789.1335030198
-78014738.9953682274
-1731929453.3106558323
-45173312.0326329023
-384583382.9005444050
1164154231.3343021870
-112061971.8153110147
-1848214635.6872639656
-1276961077.4513823986
-322199921.6163070798
-73592311.7597991824
-31874125.5642537139
1092673141.6600687504
401019332.8632516265
375313187.3290617466
-2363987900.1899147034
289752556.4033792019
547719862.2197347879
-1719345421.9365367889
-475197826.6086022258
12771723.5677694567
-270040660.6410062313
137716932.4451670349
366844274.8030371070
297232333.3585541844
113651522.2627559602
2628023859.8345746994
-375931275.2736915350
-296056091.8204326034
-743342013.9839899540
-246222276.0532237887
-1378230172.4999589920
-1788542050.9309816360
2121245934.4704279900
1129415011.6677725315
-335529988.2238259315
-454499590.0291208625
-1107157672.4012379646
848328497.7543667555
1174964962.3117742538
-598814811.0664209127
-2804346745.2383227348
-1554146318.3260896206
726377039.2503036261
452042208.4190337658
81093739.1115124077
40158611.4258521572
-30523785.7297332399
-40307980.8421604261
-630960955.6736310720
-481553967.6626035571
-416117106.9169435501
124972773.3546328545
-1769482553.7913208008
-269030842.0431991220
-11678227.1259048600
-183132866.3999950290
2304198783.3188414574
-431254128.9636026025
403781296.1949205399
-373334037.5284984708
1093391456.8354811668
-596236182.3400198221
626552040.4339069128
-62079384.6099128425
868264269.3955082893
-418219932.7306087017
-105648058.5627671927
-2167253544.2990717888
-1219555886.1936984062
340188540.7356068492
-208169173.6833136678
-335129363.0622797608
-186003522.6627999544
-3278437231.4281277657
-2506937127.9425067902
-567114144.8339539766
-1602213845.2774386406
-761578614.0298732519
327635956.3244811893
-280154586.0501024723
-356465931.8237326145
-116192060.4946226329
-458240752.7142125368
-274484203.2061923146
85856297.6241645515
-670190556.7867172956
-398998970.5924896598
-124411722.8241380155
193982514.3932429552
2421190242.2605638504
-63611083.9965260550
483464177.1161683202
411013390.6940137744
-407370682.9833564162
-2115156853.9753334522
1062572383.2376558781
918196033.8999570608
-3073311793.0527124405
-1362283362.4219915867
599899056.8313379288
1781411092.7889940739
-238686434.3545115292
-337197267.8917562366
896074638.9309216738
-58983482.7151135951
208874590.3923094571
-1449280171.0799281597
-369335920.7961393595
327506.3792999311
372528724.4061397314
-26491578.1320209093
1093305305.5321986675
385645831.3178129792
313850129.0741895437
-384085445.9842357039
749062642.8275861740
-435356201.1108881831
-369184072.8543344736
-330843759.1186320186
-1359673801.6803171635
1014900081.0664459467
-189625476.7308720648
-354529877.7372601032
-1658909748.6597578526
-185423634.2944262028
291271558.5143874288
736189542.5761585236
-188155086.6233402193
355168561.0541569591
410266736.9494781494
13412971.9500805642
54570894.8731752709
484757057.6424088478
-675809697.0822646618
262611692.7781929672
1002279755.6115311384
197808454.0318640172
-166344680.8035621345
-363172166.7367739677
-1098457766.1526494026
-304367114.3335137963
-811126745.6078003645
-2184862147.1880044937
152766661.9801150560
-958955713.8677710295
-91964006.2962065041
180592973.7543915808
-613605156.0258159637
-107512594.5501496643
-570109079.6542425156
-2058565565.5589122772
-1921513736.8881845474
360582574.2573368549
-1327909120.2961134911
-1330232331.3964886665
-1977635788.3300116062
-358711630.7828588486
75480694.2413755953
505834089.2057397962
-331688222.5222941041
-276598040.4265555739
-70798720.2317795902
25143073.4967926033
-1502761003.5376577377
-731948364.8867703676
509617312.9695226550
1561971336.8398129940
837074186.0429388285
2519610539.5321288109
-423090295.0838235617
460725164.2860988975
1253490913.4195048809
-176346864.3741755486
-1830639356.5039718151
-1802347747.9325857162
461802076.0691710711
391457818.2194607258
-305772830.8563160300
-309043967.0196326971
-2116650836.4214377403
-406539822.0205700397
-1848584351.7356457710
-786617448.7758542299
550287020.2634253502
392858480.4950832725
135339195.5622438490
2502929647.3243241310
883244649.1394201517
1040364967.3610018492
-3271459.3813474565
-109336980.9664984047
156276771.8287488818
-736044739.2436935902
110401777.3575291485
-818840247.6303349733
25441325.8932556473
-29042955.2332566008
-771262203.1581429243
-724890851.3815288544
-632594048.3761150837
-979283146.9570438862
405758399.1620679498
-751379292.1704148054
-1097312682.6560561657
-537349601.7190183401
1333426186.3403720856
-329470161.4200975299
11324745.6499632075
969526122.9770784378
-80137005.5629902631
-632223221.3497092724
76032688.8132354319
-82317991.5050109178
-141728033.2923832238
193206984.8439099491
229389640.8852863312
-64486209.8110754937
-142790701.4869775176
-736142828.9801194668
-251728545.0685902536
-1608199940.6543045044
-350673456.3587735891
129751099.3691826761
-357333801.0264391303
-109676186.4043880999
-139974777.4440463483
20217920.5731539801
-536241968.9656375647
-2282715605.9642510414
-1620342303.2796568871
-151934952.2410016656
-351106245.1254910827
1755142523.1779458523
-1463243443.8996632099
-18891396.9221153595
-1902811537.0857248306
719773482.7718706131
308795657.0990051031
-690075988.9277666807
211256790.9253300130
490663407.1293064952
-183080326.7184356749
-110553433.3625933081
-1926054597.9329347610
-308125154.6859436631
-700755299.2385635376
-841084739.1563206911
18391555.0608823523
-623555000.4769712687
33660810.0147817209
-216414844.9931945503
-41452504.0995480120
-687061083.0276262760
86025026.4951130003
-96257724.1624032706
-1505872585.9291608334
-2374842353.5923986435
90289080.7117500752
-200035198.2490960360
1104419561.0036087036
2329550526.9325175285
218279843.2572448850
-175161419.1708540320
-139666290.9547316730
68858050.6801202446
-309991358.9820773602
-1579793962.9028105736
273805976.2708242536
936972738.0634940863
57562973.4393296987
-2005111560.7608852386
-635155535.2086688280
-794548387.9588431120
-1318120920.6632223129
-742904463.8782639503
-213315665.0393006206
220399115.1445340216
293172571.6280252337
-17933099.2175884396
-157015602.9495107234
1443777312.0505166054
-1035263856.6243690252
-275857123.9581028819
-40969872.8049255311
-2029406046.7582571507
-62867938.4256936312
1495386089.5161492825
189145130.8109756708
-621453899.0307862759
388562076.7997168899
229120092.7473612130
-194534440.9437125027
-306329010.6200793386
-529403672.6549736261
-202182296.3364687860
151205464.5302849114
70013962.6382809132
111009372.3137060106
-264772112.6511967480
-192275099.8820609152
-23768806.1356582008
-352390752.9940290451
864551345.6457889080
-204202415.4320858121
235578600.1751716435
595972045.3645310402
12111221.3458424378
173187776.8929610550
-288891247.1039251089
1225316252.1408596039
1036889748.3626327515
551632344.0669829845
-215518642.5376745760
80996451.3552394211
126086927.6986392289
533758627.9780281186
-110605235.7653673738
260876405.5560144782
-117795228.1013692766
344055103.0427885652
-2205713648.5944862366
-1910312384.2740838528
-1165808610.5684478283
905514144.6824585199
1323615111.2563021183
-389800477.0039987564
-18308318.5157149322
-2184804294.6706471443
-311467221.3740708828
259334392.4500116110
-144806840.1271961927
83967886.0344728380
589418990.6593519449
-129610205.5577116907
-1435600924.7117388248
-2129373709.6626055241
263707357.0489514172
984233907.0750069618
1113955354.5984261036
275275327.2609073520
-5518143091.1295814514
-2049213125.9139046669
-1054033514.4909380674
-516500157.1811452508
-814684293.8605669737
-256807379.8954261839
-434628834.8829836249
193106580.5392179489
-1634255236.1536898613
-238001197.7788181901
732499594.6987566948
-1627718369.9864718914
-1833803022.2989349365
-105798233.0967225581
156161945.1105336547
-11409395.0527684093
-238233386.1027784646
-2338302349.8488197327
114849652.4689525366
162788448.4010538161
-1385406255.5113539696
-1753072367.8151528835
446012445.8583890796
-750806176.4772073030
397204644.1666415930
-374183050.2520193458
-113996647.0995378196
-142493712.5945993960
828862181.2438104153
322357088.9390331507
95535795.1083298177
-19688453.9271211624
-542623203.2044146061
981811916.4881564379
-413454874.6662475467
-257836152.7541993856
-337769298.4940704703
-88601676.9979634583
722507366.6800378561
764174307.0130305290
339354046.7983989120
-145676060.7843979597
-420544716.8614934087
-296003185.7440363169
-111849131.9000192434
-1282702402.5419661999
-823710600.5092638731
555120571.2008218765
202321693.1427347660
-2436726595.9647035599
-351605613.3803461194
318870134.6443980932
-31599764.4020674229
-385199649.5397707224
846882879.7602760792
-234804850.3861948848
151444123.3415943384
-35726716.5196153373
-2353477075.0694909096
1261235152.0573356152
431993481.2735643983
-273881446.4465489388
-1004510916.0144314766
159625103.5135570765
-198861121.0313108563
222483257.2730569243
-1846045334.8157014847
-2896307685.2877759933
-1879779746.0016705990
413650677.3788567781
-262962912.3283404410
-936585413.7011622190
349390036.8878470659
-1914290969.1785149574
-34171616.9114985242
-286838546.5764929056
-1657234576.7465353012
-473481606.8481677175
-1754937.5520843840
-2006814841.7032997608
-1343783347.8584661484
-2201010918.8653688431
15742338.0418812782
61942720.8789570630
378818381.9179003239
-55125690.7309456542
-94651507.1870304942
469513434.8505835533
-211248243.5565042496
845723955.4847121239
110692409.9673609883
1188678164.8457403183
479999658.0151918530
82181908.7971322984
397630960.6954311728
105479902.5322870612
-1786775030.2962932587
583938762.8360627890
-642454026.6584894657
-79451363.1343548149
77807634.4920505583
998326954.3482943773
715237507.0817887783
-352903323.0773700476
-206236728.0765742362
461187901.4532574415
534151270.5621794462
731727526.1135619879
555538890.8010511398
-103804562.5179223716
-1085113114.3818690777
275794421.0418471694
-191062671.8508268595
-2840266574.2087030411
-912518513.0091863871
-223833894.2593038976
-191748247.3196704090
-165311021.2832285762
-236139447.1741124690
146713452.5796361864
-399284756.4875485301
604579197.9904621840
573777839.6754302979
2827138.9848182760
565841778.2689207792
-1911430050.3277375698
84284667.9032331258
-234266481.7885335982
-194025610.8339195549
172935291.2062363327
489954381.4201760888
-37672699.6716810986
161317369.9066133797
362694385.3856391907
159649459.2201667726
423933881.0209771991
-104627213.4466552287
714773893.8114715815
743985960.2394782305
207202262.3802476227
-216023780.0848488212
442075881.4024929404
-547246508.5067073107
-2712740144.4015588760
718455476.9482446909
1007825210.8342455626
-608681807.2178671360
-1413861614.5112698078
-406949376.3148575425
-1480281542.6604173183
-821458185.4565446377
-633505116.6293977499
550088700.5931217670
163358856.6925577521
53222273.4955787584
-1573931661.6806442738
-112215687.0740131885
2548861992.7467160225
128641917.6842078418
-500774575.1941877007
-1008324941.5486092567
234835075.9454058111
-1215431378.1639676094
-1506984459.5457477570
-1971846246.9525818825
-90980905.8705931455
440398410.7812545896
2569593846.4138875008
267211570.4551999867
-24580293.7583693229
622244577.5087418556
-522640802.6925401688
108914644.8009464443
2417824007.5989294052
-353746250.5705142021
-1894929238.5884735584
-2012109915.5521793365
1430309967.8577702045
476508116.7947075367
-1382436636.7176010609
853771969.6730310917
56402863.2990195900
176598028.5352883637
209870918.2529672682
-748597725.5040470362
-376831798.8395046592
-1779379359.2749547958
-87805583.0767182708
-1459796068.2184994221
-683873939.0675938129
-1459049063.6055374146
-1704166982.1854016781
-1842701711.0228822231
-1550364137.2294542789
-370648024.8217532635
45922465.6694649458
-1218932369.1742753983
-1080497814.1982820034
238944263.3725694716
-194917280.4305107594
351276724.9424043894
-409209414.8596143723
-488240065.0964232087
-306644624.7615870833
-202170965.2306605279
30549313.7330958657
-600612734.3069106340
527937068.2089948654
-1474525448.9942145348
-1989963688.3878912926
-804872332.1782602072
-2014588617.9334228039
-1050429967.3288465738
-963334495.2445943356
-3066930945.6844425201
-847366785.5524927378
-697827129.1220245361
-512369216.9558477402
-332145434.5985220075
-339284059.6816352606
-332751203.8408218026
230512309.8295640051
-88166010.5084250569
116333439.1797854602
5072912.9237606786
-55516445.4626491889
-206752329.9784345329
511155152.1322641373
-168785137.9183356464
597567480.1219109297
-621544812.5511933565
161262667.7380788028
610617632.3694903851
-2292176159.5466299057
734123038.8390204906
818892883.0964850187
1060967603.8472512960
468837746.7254913449
668551875.2586275339
-2868987251.5706624985
-31385419.0855647400
-1694467893.0436367989
-11754033.5252619646
-273597654.9631052017
555174604.3708521128
17403372.3156837709
-1096978643.0951366425
-21868035.7204073519
13848657.7109858990
310206289.1556063890
412190902.2302249074
-1588506484.0707337856
758371116.9285500050
724185747.8981662989
2503603120.4932007790
-327999905.3425137997
-442522006.8707622886
883641331.9199897051
344232759.7715368271
685474421.2685561180
-921549349.4186248779
92976169.4500122964
-307123329.6389757991
109424158.2204608619
-24646334.1230964661
-413591573.6796692610
-10209438.1453600824
-93685246.2526352257
-1318662556.0324211121
24314707.2050274201
-90358928.4562756270
278305023.7424371839
288723134.1744131446
84229831.7987220436
-1485552396.9135260582
-2223781096.9407310486
-341648468.2643324137
-388475507.2240533829
-250928361.0133337379
-205454558.2955734730
-770841793.9299789667
200837076.0291492641
383405458.7341079116
628978459.3082476854
-72816893.9575376064
32107178.8039976098
-77861226.2183341831
-2101334211.9471328259
-1375573411.7021934986
-1028658143.7007045746
-2246046926.0721430779
-1140741963.1528775692
-119663866.8152782321
-1935051125.5663540363
-475266153.3882313967
88461934.8292285353
-197757618.3037580252
-1663616813.4946141243
-893436290.3424872160
-841043859.3900886774
-187991060.9109867513
2706360536.0822491646
31250400.0983391330
-583684036.3481608629
-472254686.2229820490
-1503981976.1908760071
165040797.6218316853
452899294.2926005721
31096812.6042491458
-1153655242.3796465397
103624781.9626109153
49217902.4552741721
195368337.9618480504
373796603.5484396815
-213230061.8939062357
640520921.9218437672
-10618562.3508644365
423892439.5269970894
347657389.9796231389
183444790.5454640090
215656897.8831564188
254749211.8780196309
-908597437.8862105608
-159683636.4376538694
90402861.9181577265
-568118174.4024462700
146768242.6751882434
-74815045.3856954873
1107386314.0474283695
13671749.4948522225
528440792.5091894269
-127300847.5032513738
-444246513.4456484318
-721114124.8879165649
-609961133.7890896797
-865054165.4628856182
-850548978.3137766123
408750552.5662829876
-519134607.4304859042
293525074.8612050414
4573969.9563010968
287325928.1080944538
1151845003.1283793449
-927032630.4656794071
140964314.6292178929
495070573.8594608903
-290228221.1308760643
-365963410.4102533460
-196190899.7383026183
-378466468.7949234843
93332756.5302674323

-264186137.3725546598
36103934.7068891078
-50098533.9160354435
-327845817.0850875378
35278272.1651601344
-733566419.7700605392
538438566.5719476938
-315667214.6881262660
-501863786.0348601341
-916631107.3488347530
283484838.0085204840
524035065.6046348810
-536411727.2228069901
-102791206.8359255642
405832841.6284969449
-61171583.3904219791
785997727.1015341282
-197885743.4289383888
-818677466.0187575817
-372996996.4620711207
-1251168700.8588645458
127118817.6659882814
-873658929.7420055866
-549110323.7673956156
-344317163.3534923792
-1259117561.5278067589
128320135.2184516937
-169513491.2989377677
-136306724.5469738841
343298897.3791330457
-28765069.7588029429
-497980580.7798445225
-235597272.9116220176
-888804827.7486203909
-644881655.2154006958
-770852056.3967031240
-36053182.7637338117
-432396805.3137664199
-691204309.2140614986
-170932992.0311143696
187958321.5851669312
-662782661.4760985374
244262838.7927267253
-587725703.9410092831
-90062713.4527759403
-119110532.9091142565
-434275423.2698030472
-651508727.3422516584
-694160941.8034474850
-801419901.5995180607
-424914765.3288895488
-265643152.2969604135
1169811898.9698886871
-512930227.6114552021
-91545566.6574291736
259413889.3771927357
-729490541.6497533321
-147909759.7966635525
-438587723.8677093387
-1036102832.1000571251
-263323230.4613077641
127225218.1461305171
229579606.8478895426
336038216.5083278418
-734997127.1548746824
-197317846.9326817393
341060359.3732627630
6270415.2985286973
-300243067.6659526229
1606431997.5642626286
-1187370925.9765059948
132635955.4946534336
-116186036.8752942681
123904206.4804431647
-580237049.6203032732
-1939945.9954329806
-189722547.2473134995
314368698.3113923073
-142352912.3866040707
492473900.9287397265
-50184809.4967301860
-630034833.0809338093
-759353098.3487188816
-354950437.5791572332
-406709716.7907592654
-283251522.7720757723
70208030.4049151689
-118830454.7149178833
-454446098.5419840217
-767720577.0883704424
238167673.4041320980
-1030211892.2146327496
-538622847.1724808216
-257267006.6597127020
-241188339.6286745965
-425058123.1079660654
-523127663.0448253155
-196440584.7008180618
349919287.9521096945
-757976776.9759216309
-249353371.9883085489
-212836424.8554312587
-777641657.6780896187
-49499865.5871022791
112963951.2637611479
263231882.8165867031
561491699.7630004883
81567985.4597814083
-262635653.0145012140
-635195816.2623423338
-345154437.4995496273
-181989432.7214559615
93273639.6838989705
-866533770.1850848198
64979072.8998310938
161110229.7192279994
-562440441.9574720860
-108041016.3595173061
-665341602.3381798267
600501924.2170884609
62653198.5474157557
-383456264.4707393646
-803164080.8890051842
45369665.2723499313
-32725945.2034031041
231763249.2258333862
-155702590.7511509657
408000350.4961159825
34388465.7641554326
53142339.8618964255
-506040830.6975662112
-812216874.7496699095
2814089.0541301379
-357372967.3501461148
-149222974.0393809676
-404602193.0128132105
627766394.1782737970
603071566.0994993448
-250979465.7161788940
52431994.4686132371
-78407800.9892173707
536308203.5062788129
-176399605.2801347375
21123872.9688879065
-102530883.8314638734
228455779.9828303754
-150315249.8713975847
-1033242911.5598276854
303894967.2422718406
515863070.4939040542
-370954756.3205958605
-1392565153.2878241539
62647443.9237913638
218946031.6139456630
273444995.9834012985
-62867024.4952901378
-663147749.5618934631
-375094437.7291504741
-407719451.1962832808
139285606.1963464618
40365927.9027139097
-184177746.4852417409
864045001.5981752872
423775895.2242484093
690631317.8098921776
-43645409.9208113402
-975426041.0643510818
-51047388.1408399493
-993353360.2134826183
-87678211.7642991543
-545324147.3103398085
593566236.0659127235
162011870.7576207519
205362110.1400407553
-439306356.4973212481
322333586.8713250160
203916899.4474023581
-274912827.7053052783
70886898.1186235398
-889430445.5830932856
413721287.1389678121
-437302248.7972813845
-1037456965.0931371450
-820379421.7654857635
-577252093.1921429634
114135730.0576706976
56645331.7536686510
23444504.1332696341
-382307667.7191912532
23848378.5393636450
-911634348.3496247530
-167024037.1266704202
-472933594.4874837399
-76744177.4720955193
-380625199.6727438569
-538659695.9266561270
615363254.9340804815
-65328843.4488207400
-257086462.5520377755
97830169.9825777560
-250225038.8324966431
170154901.8569592237
95441558.8471332937
-1166178803.1728453636
-125327274.7206971496
-336812247.0185863972
389401211.5328257084
-300370147.0125731230
-69322947.2291198522
232863718.7887112200
-973989327.8938571215
184732913.8566706479
-33536816.1391937025
-926171867.8079518080
-265265715.3794541657
235227859.2019601166
82925991.9073281735
73551394.5023293197
35161033.2525287420
203807933.6779988706
396274323.0930457115
-669094182.1286274195
-74160827.6709828973
-171257327.9991186559
261501766.1286157370
-742203879.7353390455
719546595.2019350529
247207608.1441108286
293731187.8660947680
-191237378.7941538393
45308182.0499046668
241878599.7072665393
-914574866.6192955971
506621112.2936351895
-24428185.3518053330
-79849860.0004844069
-100497082.4684128016
316282486.7986590862
260587016.2873671353
-419545687.2974734902
308853203.6010917425
-809389139.7749912739
-184831640.5540198982
-87795409.2827443331
-78403591.6098984182
646618930.3109456301
-536477987.5535001755
-436949310.1056836843
-249539456.8456901014
-563595927.3765306473
-238771510.4064894319
324057787.5476056337
-61241810.1990211010
-84842602.0893885493
-308076140.9750678539
-478083431.6453471780
31701914.9375031218
-235797118.7061981559
-557370750.3959039450
-175397803.4081722796
-355657404.3522083759
-495726888.4700405598
344334003.9105642438
-17312204.0074853562
492939950.8735245466
154026079.5742789507
-901092494.6869101524
-921722999.8375387192
-1030982227.3355929852
-361220734.7795200944
71549789.3528787941
-677896149.4113612175
-1129544615.6736536026
-20078882.8806861229
-2883637.7873598551
-859704766.0672082901
36075312.2665124163
-424140822.5334418416
-530086810.5807334185
-397999470.5482478738
18859756.8902907483
142427798.5708635449
135393414.5800543725
531875519.6815972328
233986464.3472277522
-627413983.3853541613
-124967515.3912113309
546972650.7357877493
115028375.4227950126
-247851776.4573263526
-847441345.3106526136
-497794693.0382141471
740449595.5255820751
-140779821.6741827726
44275964.0462083593
-1188887955.4536688328
-593408399.2924324274
-806219441.2804391384
-890036549.4908061028
105756357.4652284235
129342842.8611005396
-4440642.1859332733
278939420.2422564626
-186229133.4901361763
479687759.2364000082
-207261850.1219275296
-414018858.3143174648
-617340173.9847849607
-228710139.5749623179
-638475569.4553509951
-303142597.1533834338
240517289.6871430576
-147086416.6399933100
-320338358.1983992457
-431976187.9872226119
-30312130.3443167321
-40048386.2359684035
996892642.6333875656
-647273100.2242727280
11136929.4653442707
-301167748.5528333187
760235450.6032251120
-114183524.5907634944
-1129522912.1650753021
134310462.6444189847
405388212.6482577920
833635514.5768874884
-38362853.9417285100
830501460.9519863129
-246307232.2206857502
-124062991.6120677590
179497227.5314338207
-5827433.0375798000
591482696.1701679230
156657961.0527423322
412589568.5299323201
-496951049.6472725868
-242693047.6957072318
-603015446.5648462772
196528570.8176404238
59927352.9341177791
348781282.3702653646
-25363569.7004062049
-363434729.5079622865
-1127864243.7918815613
-540811362.2134977579
609311840.0585867167
-130879997.6963336021
310331552.6243098378
-272985272.0626214743
-208163371.1985622942
-453824326.4315919876
248543054.4084213376
-105491829.3146677315
77595688.2858127505
473819605.5681899786
31283583.4642091766
-190923406.3689075112
-124203058.6114115715
-1008187832.2167719603
-295594678.6138700843
-461383516.7933880687
-604415374.3380943537
69642683.5163967758
-590291417.9831690788
526268369.0407047272
509233920.0273265839
496070927.1512805820
818655568.9264689684
462073507.5710554719
-564717663.3165558577
-687321789.3930481672
-581850230.4451662302
176709539.5510116518
264674939.6493636668
336790783.3109607697
274663416.4383666515
-497587651.0189970732
-434342329.7569554448
-164973696.5719091594
-454251902.2540871501
-462711919.3163457513
-427468657.4115517735
-745363835.0896691084
-21353286.1984091699
-823817967.3276065588
-694231834.3446401358
-598913897.0958191156
108041719.2414027900
-648095712.2635965347
-299438353.2912330627
82553031.8109963685
-134018703.9655766487
-38139048.6241817921
-22835199.0089731216
-112593834.5092465132
271327227.1113542318
-134398683.6639728248
192088754.3207273185
-690419195.6143898964
-848769527.3458969593
45154895.5598657057
30610243.7379662022
127185836.8397996128
-264398391.6121739149
63191466.2311012596
-451646308.0513630509
-141601685.7682064474
35709535.6295670047
32693452.9252613746
-546778328.9165668488
529269788.8957781792
-145448615.1507557034
-149227294.1933240592
-482822379.9159668088
-504045761.1599119902
-146054354.1402885914
-704652968.2427129745
58767418.3997475505
-231654690.4465669990
-149215358.3005969822
164526315.4399074316
-156927800.9041695893
-304813580.1558026075
-418726245.0697517991
70564681.5406334698
-92549182.2449030131
89987724.5228901803
530276278.3559013605
300896053.0950192213
-273184031.3768808246
-433733380.5791532993
-152601933.8550863266
-864285158.1691632271
-124151480.4356347024
-170635885.4092386365
-672961371.2848752737
-874202654.7332260609
72706506.4392871857
31426361.2704975232
401204190.6479942799
95011230.9073000252
398208035.1033502221
-586835129.2426979542
65898601.8565836102
84454126.4002746642
6184642.9322754424
-62597852.2657424286
382328149.3761453032
-145255141.2800256312
-706611745.3821032047
63486080.4932035953
1119323070.7150242329
266212354.9301060736
9727594.9721971247
-250349544.9421378970
-3337612369.0528759956
-802269694.3469755650
-105251498.0887941867
-307911025.0135616064
-529590660.0186553597
392716932.9382937551
-3991385.4084674222
441347538.9565230012
-724303723.0085438490
130298174.5007200241
236458575.7325221002
-319134775.3818314075
-827609070.9404151440
362278253.6561099291
628206779.8133240938
241112207.1503498554
167046437.3887240291
-620048581.4605531693
-77553780.5921557695
53326571.9024623930
-410329434.6862992644
-148095599.7938585877
690254929.6896982193
-368068475.4278768301
308124610.5547282696
-190635986.5426371992
353386128.1320836544
-700423013.5547667742
135040246.7399985194
-326132282.5135023594
-223942330.1795635819
-67001632.0905425698
-68412612.2561904937
218099306.9651510417
708899712.6137790680
902709783.2430067062
358016195.8410215378
-67383051.1814906597
372723230.9434520602
546892546.1351401806
672315485.1136546135
741308527.3377058506
377451660.3709046245
76785911.9747089893
-113808687.8008623570
-741556029.2930970192
-283170492.6740023494
80463819.9052829891
-290604682.5163743496
-786479519.2277926207
286791992.4786890149
62385593.9943019226
1315387545.6835305691
-660281910.6996833086
626855807.1412156820
336818691.7821401358
-171106316.8121775985
633109465.3849047422
30254881.5912326500
334441411.5130788088
166943625.4193553627
-688413663.4191414118
-294284862.1372529268
-441742661.8568698168
-227820109.8920507431
21608021.0760829896
-859806674.4964321852
-339703600.5392126441
-335091204.4663226604
290094524.2013269663
487748467.3102784157
9889503.4850499108
-385890786.8665593266
-473979717.9770676494
1005753908.6016423702
22934868.6287447698
-204059981.4896069169
436266112.7092878819
474166799.7089107633
-634868269.6617808342
-388739989.6364399195
-474688180.1984161735
-243307137.7647903860
-338983988.1515449286
-488071469.7651832700
626279769.2170565128
-6393707.2219272126
-449876345.7070012093
-249434389.5627125204
99143169.5979931802
-557726401.5473647118
161719926.8963379860
119956680.3601166457
-892992116.3190708160
185948314.2885825932
117165116.9096019268
-362568396.0060793757
271756664.9480868578
140661924.1367077529
-55961897.8136766106
564852133.6169235706
488701471.3756410480
-21631067.5026536100
204066876.5411506295
117325023.3229076713
97751128.0515489578
162612643.9314675331
-107893352.9665907472
63549396.0129380897
-49630941.3452636302
-308914572.6655797958
138308994.3207255304
1053094105.9077872038
-511265487.3972726464
-117891105.5160534680
430376701.2018489242
800585035.1529356241
574273308.4493901730
-121150096.9326216280
342453223.1461939812
597844059.7583638430
202023892.5300191045
767932051.4352266788
951074040.9954004288
-62693004.3167646155
-956927049.0602208376
-848251693.3159720898
-1360915693.9611437321
-32925833.3026168160
-61133843.8729167730
-259192443.4241211712
-810526118.2794629335
21091506.2019386254
646859954.5945514441
-453518338.3810392022
52241288.4097031951
-370516590.9580699801
162148861.6606279612
232493530.2918648422
703948186.0303734541
440201312.2459794283
284306887.4665217996
76901204.8355891854
-291514926.2228797674
25161819.1391020864
151285880.4356078804
11307150.9970807303
-638063194.8465075493
-346660843.6823939085
-729669032.8556472063
-459098936.6698778272
-445893478.9284590483
89919046.5386116654
75416967.1306271106
290518072.2854254842
-1071519280.8623920679
-107713287.4925276488
82344446.6677079052
-21208008.5436962768
321494441.4415121078
-28570415.7848589309
133168754.5818071365
-741526041.3134444952
-480579156.6046014428
-998450529.5467873812
70681807.0835238397
-50588455.0159476697
488337047.5979463458
470383015.2836969495
232753629.1690354943
-37716212.7774099782
-1600728088.7967326641
-640205776.6077748537
357397001.4472945929
51495659.2626388147
-904580510.8050951958
-775608591.9566122293
141100036.2640894651
-284859213.8096283674
-408962326.8013830185
350814064.6571068168
-163419000.7116659284
96754245.9391292185
-176695537.0355838537
437958263.0461179018
-5133043.5142063778
-856468945.5459140539
416367657.0890484452
-22020072.3248389959
-275858311.7230230570
-186457256.1368962824
-496952745.5952447057
-485444996.2971732616
-542337862.1527905464
-51974083.8917566538
-329737939.9663367271
-312513986.1244390011
-927382985.5068689585
-435160497.7861089706
-659784389.4581123590
89791434.4113585800
-1268865143.5139808655
-129622423.3375215679
-592274785.8659136295
-178840444.7728117406
19865544.9516810291
232104076.2941508889
-52465356.6422176957
-355623952.6476427913
-193666497.7704004645
-687453441.1869477034
-354362826.3464393020
-92617182.6874759942
-526125246.4938274026
-344633597.1174828410
-297678609.5283046961
300455319.8735441566
-1021479.8938139084
1137532800.2911515236
137448182.7765077651
106640305.2579181194
-128347.3599679147
337527461.8177288771
764149048.4965152740
315853356.9837108254
155930945.8920516074
-1096099295.0775072575
-38133734.1413589343
-822755945.3248356581
-1180120027.4062416553
-397744546.9425235987
32590730.0397844762
626406049.7004303932
-893659602.0180090666
309032115.4341101646
90274153.8173068762
443338988.2511331439
-96070317.4771982133
-192222424.1121271551
-640385603.3632122278
-206389543.0109961629
-223087540.8482448757
-157976437.2392437160
-308122760.3419250250
23408588.7836063802
-543382911.4235805273
-492289770.7396848202
-746664826.9815344810
-780042107.6696965694
302979758.0677533150
-784913088.8262617588
-186089464.7147536278
779814703.9462435246
928411083.6897799969
-68835116.5374330133
-137217473.3062937558
-306695271.9210454822
357770104.3803423643
-158913716.3397676051
62349607.8074654862
-376760606.7699050307
-232537262.7205701470
-108159403.2804129720
-459520267.3166574240
-726310303.5150966644
-14330947.5781274103
486942532.2384358644
234459324.0853407383
-247924954.7715550661
935875288.5762501955
935883915.3625534773
361974569.7558048368
322853107.3389944434
-270420037.5008041859
-361315364.5362136960
-397786799.1883392334
919082394.9180018902
1028927891.4712550640
-173741919.8090097308
-115096159.6792988926
186013847.5050221086
-212308898.6501727402
-599153303.1167644262
97446360.2093748003
571727952.8420974016
-561604672.4815126657
-1055770720.3018369675
-298562637.1886851788
-1210956051.4057655334
-79287230.0892324299
-761239283.4976357222
-509909007.7665951848
-342003926.5804157853
-887323941.7307748795
89324335.6766214520
-400215805.0595329404
-200293876.0472926199
-193063553.6029499769
-239862243.0713160634
-293282408.3096144199
425334496.9704104662
-346945633.3228545785
1010947325.0761909485
225975517.5681367517
529476191.6874783039
-161851869.3532347977
-130024894.8369558007
-182108036.4978335202
-966498213.6250581741
-226260941.8253212869
985203133.8544768095
-437115556.9271314740
553139193.0675466061
-548626480.5951590538
609241874.4034838676
187432416.0362321138
-333012643.1894475818
-880731843.5582534075
-201805494.5039929152
1081257245.1437342167
-274628414.0570682287
203020235.7066532373
73746441.2507825494
-61018469.6570742354
1029866876.7999196053
55440492.1562358364
37105767.1024415568
511344343.1260463595
550440809.5882357359
858479737.0159776211
889282965.8107382059
1305461258.2092602253
683510474.4832887650
618766681.3086063862
927389819.4696640968
1147464353.4209187031
-22169958.0784878694
104108833.6503059566
857845202.9457348585
15606553.2122882921
-667947150.8350472450
-127845318.8706885725
-34614695.3841514960
-282037214.1563795209
-212776834.0498682857
-125456403.4411330074
146134074.6093077362
819330884.6273573637
-703803911.9132206440
-868867290.7238246202
-538432804.5108940601

-63.7720715546
-28.4504426356
-55.0635975253
-72.7970335209
-58.7510075195
-40.4635217948
-54.3079593723
18.8230384947
-47.1273437742
11.9511001438
-56.3598684853
-54.7871734392
-1.4470852105
-26.8353533899
-36.2943929813
-71.7854960084
-58.6001176335
-48.1977640063
-44.7276723128
-45.2725942914
-42.4900149031
-46.7801774986
-52.9786231043
-70.9317807505
-57.5274279066
-59.5730060812
-51.3544457328
33.3409038431
-53.4381681790
-49.0652098467
-42.7260060855
-44.0319056455
-37.0852576899
-13.8533073190
-23.7549773081
-57.0176789428
-54.2510869963
-64.5072736428
34.4355521396
-57.5454152020
-56.4482179808
-50.9389610637
-39.0066680857
-12.9646210010
-39.5949888518
-75.9494901389
-49.7240913075
8.8108660182
-41.0435102812
-53.0792777619
0.8760373117
-60.7104948840
-43.7855094094
-28.1821857539
-74.5289137727
-40.3760778943
-48.0605312784
-68.4224509549
5.9231780697
-63.6828749516
-44.2653545169
-67.2850177848
-53.3843317086
-76.7269334355
7.9547195661
-8.6157825179
-50.2856261699
-35.5530191798
-24.2796708370
-84.1887431364
-50.9262032174
-58.6973082008
-53.3141194468
-38.6808684334
-4.9907141315
-54.8557710466
-50.7562651542
-47.9678266271
-65.2748561141
-86.4428196106
-39.7302149775
-24.5241697537
-42.7994630944
0.7298578155
-66.2097213694
-55.1081047843
-46.3940780307
-8.4342511106
-46.5196710476
-6.5736388049
-13.8705302596
-70.5837649009
-65.2195182409
7.9337587469
-66.4998438654
-10.8308600109
-70.0427593685
3.1290827982
-14.4121124408
33.5849428083
-66.3051660224
-66.6548717322
-71.7759761813
-74.1686913038
-3.8454751296
-13.9414574725
-48.8929114145
2.3391031811
17.7850825059
-0.3440514648
-62.0104290301
-57.0083391671
-58.7125027448
20.6587885701
-48.5652189954
-23.8373373812
-34.4369419004
-38.2992864608
-43.0300681839
-44.9701788408
-46.9021336436
-44.0215043485
-53.7880790631
-75.1549960846
-37.9304914795
3.8060720431
-52.4356269187
-54.9331247475
-15.8165330262
-23.4245747916
-64.5447532673
12.8688404362
-53.6269156489
-69.6647837724
-42.4965808295
23.3163131099
-56.3427049069
-82.3229239375
7.8156478686
-11.6550283806
-31.3083551695
-24.9347802596
-8.5024479421
-37.3210552795
-70.1907593714
-60.0533908666
-66.3743632331
-76.7830812096
-20.8388429617
-52.6190811800
-47.7242966880
-40.3357866877
-75.0980101159
-29.9129289897
-39.5106424225
-37.7734386672
-57.5833381993
-53.6659763697
-33.2741029945
-17.9980022475
-47.2158505641
-29.5591532242
-48.8864283441
-2.3530797009
-29.2644677520
-55.5559240025
-45.7080673170
-39.6846236872
-57.9645791007
-39.5493975614
-40.0196440782
-45.1504983780
-25.5444949443
-66.1487153132
-1.3213045570
-60.2395856644
-25.0606910877
-13.7181535903
-7.5207802517
-2.9415426309
-42.6028263994
-42.0045526177
-11.1028455378
-74.0561909460
-69.4906779306
-20.6802057085
-51.5494709393
-62.9141266093
34.1429729540
-63.4494245070
-78.9035330567
-26.1879207633
-70.4484280766
-60.7888346914
-14.7649044119
11.8622827949
-55.0155053469
-19.6696345969
1.4521720022
-16.6327080477
-33.9682273784
-72.7897293521
-50.3728604776
-49.5012715372
-38.6097170354
-26.2393399227
-18.8583688775
-27.2089462401
-32.2957825642
-58.4712528072
-66.7299956208
-23.8608896899
-18.0923783856
-71.0989657773
-54.5571021983
-55.5344387584
-19.4585278511
-4.4357884767
-21.2859058099
-39.7652330336
-17.0915533895
-16.2557644738
-61.8547314931
-47.9706930077
-30.0672116711
-31.4896900439
-12.5952274138
-51.6551507888
-52.9722177035
-55.3630569083
-55.1290751824
-34.1718654968
-46.3831936944
-55.2713079364
-55.5633948249
-71.8267227364
-27.6392768485
-58.0217918833
-59.6395202338
-48.2385058325
-7.8824227893
23.1734985860
-0.7959468109
27.8722776848
-17.3348354442
-56.8229132800
32.8653290960
8.3201591220
-9.3321269035
-52.0549392576
20.0825670861
-55.7577592272
-6.3564741607
10.5087407653
-60.7550368376
-65.1292732853
-41.2542519993
-70.2998759476
-56.4177567245
-48.2306761967
-46.2581663936
-42.1254257070
-76.0445035640
-76.1184609916
-85.2840656684
-4.6174635045
-49.1731352722
-78.8775172329
21.9534181517
-34.2732513092
-62.9865535911
-58.4770980132
-41.7782721737
-44.7085960498
1.1481166043
-44.1267048007
-58.1596263945
-48.2353026105
-32.8964141212
-51.8991400893
-59.1207862317
-22.1360265374
-53.0252780257
-48.3378812007
-23.6641328613
-14.2166663517
-33.5766971918
-56.9752833272
-62.8939253021
-52.8998988028
-55.3716173541
-25.2684500274
-77.9984895004
-51.5277136646
-0.4587358847
-69.3138903072
-45.6743997519
-58.4102274651
-50.9843548718
-24.3269225023
-24.4554090672
-42.8733795040
-16.6732601202
-43.5061271280
-29.3278964836
-11.0125501239
-45.1188554040
-8.7499147414
-2.9230512601
-46.4050098969
-48.4701816140
5.2199799962
34.9056301631
-54.9058384962
-47.7443171899
-46.3780363129
-62.6096571425
-54.6736036036
-55.7689398261
-59.6823730185
-70.3126898588
-58.8716326158
-54.1557312889
5.7143163527
-46.1425403738
-53.8153910287
-15.1244403962
-53.1496053822
-37.0352420311
-33.8676804368
-40.0417700975
-56.4085444475
-57.6151236550
-78.0567165401
-79.8430340150
-35.6929280465
-65.1832295742
-14.0140897893
-18.6456857579
-14.4878937713
-52.5766347529
-78.0772148471
-56.4724753592
-25.3951438346
-66.9000774967
-76.8147650552
-43.0444525879
-46.0377101249
-14.7736862073
-84.6951681858
31.9314230364
-69.1840561435
-32.5967020260
-29.0826814925
-71.7570135331
-89.6314032056
-11.3832468076
-36.3995457516
-40.2437619652
-72.0017638499
-39.8856183093
-10.7073068424
-13.9711683234
-40.4138961796
-33.1910422001
-20.7267802175
-59.6155841903
-25.0294083887
-31.4520952387
-85.6480820182
-41.7886284441
-71.2157684848
-73.0074764118
-56.0408860064
-52.2454805187
-53.5548605334
-14.5500624779
5.5928118492
-14.8933314700
-45.2434295683
9.5477380164
-67.9016958658
-86.0500588538
-4.0445763766
-42.4675611550
-17.4938277339
-69.8054478594
-71.5341810347
-84.7484317944
-80.2886427706
-44.0526607458
-14.1123104360
7.7550411551
16.8183683659
11.4573517748
20.5206789857
-39.7838119806
-68.9987716084
-31.5385802753
-33.6876556035
-73.1044071228
1.5297929513
-14.0318178235
-36.8208654506
-72.9595224275
-26.1958131315
-16.3325315342
-54.3561845896
-22.5310512001
-0.8451417050
-41.9714065655
-78.3261642886
-36.9289517285
-9.6631899582
-40.8504603590
-35.0638460731
-39.3953980698
-44.9110093977
-28.4026296198
-31.2326182125
3.7772188213
-24.6889866525
-3.5293983687
-44.6529220413
-29.8088652533
-9.7289194921
-26.4539771749
-16.6235162563
-30.7510060077
5.9117718269
-6.7023397595
-25.1311677777
3.5002225166
-23.9884399180
18.6080908511
-22.7906587468
-52.8826035635
-66.1578425832
-50.9711033873
-39.4355926888
-56.7163264770
-7.4283723870
1.2622266322
-57.4682686583
4.8251665950
-53.1466437231
-57.3561471942
-5.6154291179
-58.3290915509
-51.2498956376
-72.2291131720
-81.2651172520
-58.9077225482
-56.3642216913
-11.0901292781
10.9138867404
-35.4794757711
-70.8753011717
-68.4658335441
-49.1173189192
-75.3151525075
-41.9844692806
-24.8064261062
-6.4956035642
-41.0337731075
-6.0257620236
-34.8112439962
-63.0338786429
-50.2566618164
-9.8495507825
-12.3491969909
-11.1277699378
-43.5549398826
-53.7424434340
-40.8692138659
-42.7918627668
-44.0778955511
-46.6272137464
-80.7419894434
-64.1535325950
-65.4563696451
-3.1725386661
-9.4176752238
31.2638482676
-38.4266114295
-23.1044193395
-27.6960806037
-42.4616714904
-52.3161768554
-56.7768834774
-13.7996653287
-20.3676003083
-21.9816632026
-54.4969266461
-55.3761030283
-57.9849543045
-58.2063052016
-50.4693022446
-5.9746020468
0.6947775179
-60.5562614747
-63.9658882195
-45.1570897469
-17.9000603571
15.8631012462
-71.3110468301
-46.6119983844
-23.9044376683
-23.4976447805
-46.2820724785
-57.7738673666
-59.5127429856
26.8732856081
-40.5500459353
-62.3544212772
-49.6499268071
-46.5424770459
-37.4517563143
-67.0386148873
22.8923232070
-64.4186143370
18.6024587112
-66.6799193838
-54.5863727301
-83.0104362738
-73.5618808296
-48.1058863147
-75.2458844439
-21.4620395025
-73.0880307573
-47.6716525977
-42.8336153469
-78.9506859594
-51.0943009948
-82.4336360171
-58.6500980858
-57.4344694856
-56.4844106966
-39.7974325738
7.1523493600
-17.5138388397
-46.6443863083
-56.0598135731
0.5497588958
4.0660793377
-28.4862954056
20.9072138815
-36.4194524994
-52.5388552025
15.5032243314
-39.8837048963
-60.6633328446
-79.1984324691
-29.6162770678
-77.1657554083
4.4669932946
-49.1678090370
-24.6985515218
-8.0050293610
-53.9898170483
-35.4156474925
-18.3001340399
-13.1188082293
-17.2134605189
-26.2104513740
-49.0855504759
-61.1488003903
-54.3636219351
-40.7711719972
-61.6995399813
-62.1861791116
-29.0750730858
-52.2672925021
-23.3064382700
9.2668602063
-44.0757261117
-55.8290958594
-22.8407053597
-58.8892318743
-56.3187688634
-11.0201547555
-64.1643379710
-2.6245874799
-37.9905048482
-34.1741476644
-10.5335116969
-1.7243692556
-44.4863675951
-47.5674660501
-76.2587598212
-36.0496959846
9.8601000193
-38.5821777901
-44.7405459007
-42.3275407589
-75.8947434714
-55.7734393089
-88.6978949293
-76.1206440515
-60.1254684738
-53.1826223332
-47.1327653333
-76.8277926869
-62.0993964917
-26.4948731851
-45.2923514898
-59.3523126492
-9.6764295670
-52.4147005930
-49.8008208870
-42.5661732079
-66.7193833390
-51.9431794478
-24.6981675146
-4.6509150524
-87.3924242718
-86.1171864219
-56.4010155187
-78.9791396919
-32.7748095394
-79.6042421391
7.7683899575
-21.0206081729
-22.9082452939
-83.3969434424
-68.9368420916
0.2350951484
-48.0292862259
22.3080439115
-22.1395657178
-71.2696853023
-66.9057178653
-78.8487932723
-22.5279506766
18.2200761112
-78.7003389975
-27.5476516946
29.2303299719
-36.5446425498
1.1362954690
-76.4583953038
-77.3034731371
-56.6541183502
-28.2073221315
-68.9931420809
-27.9659599234
-77.6222550179
-45.6267445258
-61.6817314205
-51.3338372681
-64.5055131761
-52.7551218870
-52.0562119389
-52.2715187030
17.2436027533
28.5585504461
-10.4682704429
-38.9830576319
-46.7945117316
-43.5429491021
-42.2945889619
-37.9420677024
-61.3821751434
-14.2450364648
-69.3657478489
-70.7863242151
-47.9519545683
-67.7413893312
-55.4934468048
-64.1794013038
-65.8664479802
-3.5368975791
-79.4725346839
-55.8652929242
-31.5310309350
-18.4097589532
-20.3493162565
-52.9559583991
-65.9487224217
-18.0028951418
-54.6096138721
-29.9778952197
-39.5798991203
12.2115122432
-44.2122370889
-39.1292473848
-49.0108356492
-48.7118775735
-58.1912570397
-58.5337143240
-59.3365439872
-43.1590336420
-57.2082285414
-25.2451527784
-12.9603624463
-64.6794270959
20.9595030750
-71.1454620906
6.2024105348
-37.7323280891
1.7649675617
-42.2239030380
-28.0676960111
-39.3572002746
-39.6998412240
-52.4600492656
-31.8323309933
-67.9103169670
-58.4586316000
-58.2652304001
-24.9930610576
8.9708160207
-26.0486045626
-55.1551214299
-43.1087017437
-60.5734694267
-55.3658618424
11.7705740359
-57.5471073148
32.2228265190
-5.5474043909
-23.6851192312
-9.7351999118
-24.3163771200
-48.6635606458
-29.7257615304
-42.3553153400
-64.9883276195
-65.5564196691
-44.2287441545
-52.7280353476
-66.3004557770
-50.3834836484
-49.1453030242
-67.1536138553
-64.1308507416
-61.3262823240
3.3152118596
20.3968909958
-9.1460658629
-38.0549688529
28.0294089734
-7.1537942128
-63.6582850721
-58.2859515956
-52.6583848105
-74.7839274144
-54.5851301128
-35.2501621801
-60.5805027757
-73.6631119490
-43.2120952115
-36.2522335433
-46.0989918299
-55.7297622556
-67.1761856277
-62.9987873863
-26.6696705312
-43.2184206290
-31.8951868564
-27.8077844228
-82.5523733120
-47.0447310306
-49.8334841147
-13.8358117337
-65.5720466183
-55.5583472516
26.1907519135
-15.1321839390
13.6246739883
-22.7109936754
-19.6663180792
27.7580883949
16.8308295581
2.2031348542
-47.0466538475
-30.5605570024
-58.2986537724
-71.9231444271
-51.2796116367
-53.6590245786
-63.8656064205
-49.1749677016
-58.2005041994
-53.5298677324
-73.1345302657
-56.8940664154
-38.1104882989
-40.7776550676
-29.4754075944
-20.1732765624
-28.0150530938
-63.1030758536
-18.0763122084
-25.7767405089
-17.4919580124
34.4164404044
25.9893051440
-35.2599188385
-60.6790034526
13.1665356186
-20.3048552809
-68.3731590224
-18.2104230018
-43.4078502549
-49.9151221684
28.5205016501

-74.2868960522
-48.2811140369
-84.4689871304
-102.6430314904
-91.8938202257
2.6667456719
-88.4990923428
-54.2671312813
-49.0611667584
-67.2402964341
-97.3433196516
-50.2273628880
-77.9664053526
-107.2813891462
-69.7244050065
-43.0484210223
-55.4268905595
-51.2506159471
-48.5571257055
-48.6492066040
-94.1646870133
-84.9309688771
-47.3419023469
-90.1139733620
-94.5844277298
-43.2143268734
-85.2811721657
-22.1196457297
-73.0393491664
-77.3992694603
-54.5153436024
-45.9144411173
1.8483763573
-78.6929826039
-75.9189193977
-43.8750500924
-58.6115252899
-13.5381085653
-22.7917757697
-84.0758572864
-41.2319981549
-47.1524670064
-32.7416350356
-82.0678489309
-42.6904733364
-31.2572532787
-49.9632408788
-70.7516957884
-53.9233921268
-39.1979443217
-37.0176739454
-100.2770022038
-85.5919829754
-76.9680081704
-43.0096826168
-82.5467991859
-50.8396828759
-32.4050572649
-35.7513272703
-13.3849707561
-79.5465802904
-79.9900329240
-74.3978571110
-72.9059039657
-69.3871327009
-77.0425830005
-48.6267227701
-46.6146592103
-96.5644027479
-51.4748221871
-93.5609204836
-27.4924149545
-67.2681548390
-20.2100357188
-76.0548874356
-80.0303473347
-68.4815040424
-65.9065017779
-59.9580702205
-65.9044135762
-43.7021177319
-73.8424796537
1.2443564993
18.0096327720
-23.5286616947
-91.0000419789
-84.0620604331
6.7715704207
-51.9333779375
-80.5456287370
-90.5944539224
-58.9188539673
-50.2458702783
-28.7577197456
-28.3061291920
15.0680150086
-108.4000237287
-26.8896729865
-90.0621536092
-30.3010749920
-30.6442786829
-16.9412308599
-34.1674545559
-55.1689496300
5.8592598235
-32.1906812701
-90.8033731099
3.1050052858
-36.2056667137
-75.5781224731
-35.8205503797
-47.7727430878
-61.3628037191
-63.5737801461
-44.4411223333
-11.8723339562
-58.4269184778
-77.0298100206
-59.8507840257
-90.6820685013
-45.8049167204
-57.4374983190
-4.0303518610
-29.8335999854
-16.4963043344
-11.5736780197
-40.9630345497
-43.7806822519
-40.4378249177
-49.2569128828
-104.6704014929
-70.4153650729
-81.6872006803
-104.5135391341
-42.7555377974
-51.1863395233
-79.6445837947
-57.6060301554
-64.3190781327
-24.0606783069
-68.3203028470
-101.0646418600
8.4853042233
-16.5139780311
-33.0993657041
-47.8236450536
-38.2261391981
-38.6948718351
-96.4104859628
-49.9548473848
-61.5901201287
-93.0771534393
-38.5877818928
-105.5524684978
-77.2181838982
-7.6979293259
-1.8005164007
-12.7052243851
-103.7989663110
-64.4213381422
-79.0149115312
-59.4024944585
-85.4023439039
-46.4289056013
-83.1370408282
-72.1795557203
-46.4808365801
-41.0897398370
-42.9014046217
-40.0780954415
-65.8572410176
-85.5830489058
-92.7481748114
-91.6295088331
-69.1051864767
-63.6747412021
-100.5934108229
15.5128586488
-54.9851470699
-77.6448278235
-50.0629045082
-43.0046741711
-78.1912289287
-20.7382931492
-104.4009123708
-24.4201918377
-65.0370811146
-63.5481666243
-17.9562345222
-95.8774644204
-62.1616927276
-48.1807006746
-20.5054964126
-32.0361389137
-76.3520668571
-63.2642456079
-70.1989494242
-70.6524979518
16.8648075927
-8.3554611344
-70.1155479520
-38.5568161190
-19.7057070378
-95.7456756931
-56.9325271117
-101.0799513481
-45.7998436600
-94.3250559113
-35.5871003188
-72.9370435651
-67.7219949590
-100.2681583497
-94.7773787825
-105.7483970837
-33.9474091519
-52.6346715719
-87.4124566001
-9.2316809782
-17.6868540703
-51.8081048188
-32.1690482008
-74.6088320694
-20.1006436114
-37.0489374351
-36.6195337058
-70.8037337654
-38.5183037402
-36.6497641976
-54.7766818609
-77.1960594298
-62.7188358661
-43.4831121305
-46.6123091451
-73.1335358917
-64.6794791031
-39.7612784241
-87.6292474388
-64.7911940516
-70.6527568216
-4.1080476735
-24.1035656740
-55.7855735878
-68.0701519877
-16.4004945230
-55.5838552074
-51.1219165390
-27.3148379888
-66.5693609363
-61.2394873172
-51.6485645767
-55.4419613528
-47.8743866173
-32.8649026367
-22.0680181062
-55.3946344361
-109.4368014148
-40.8662057533
-78.6478616511
-27.0905759834
-54.9682116571
-37.7080254421
-56.9248379098
-54.5612548290
-39.8095306913
-62.1400645996
2.6417091567
-1.2967010933
-68.8355251872
-62.3274444875
14.7831014063
-100.6385762006
-8.1618121876
-101.8163188704
-48.8526713960
-56.5863180535
-46.4104102469
-58.5262953857
-71.7238975703
-67.0387044135
-11.2519092271
-19.4498576427
-76.2816201092
-33.3226664956
-84.6721072391
-93.1187104137
-71.8217812558
-60.0615630649
-51.2722192827
-79.6818347082
-95.4571609776
-69.9424397798
-71.7358586168
-53.3169403493
-89.9084527273
11.0646472928
-21.6119849462
-47.6733765913
-64.4791561988
-46.4902656527
-103.1411925855
-36.1867097669
-47.0416237102
-94.3085741069
-80.6547143418
-99.1362290448
-71.7197856619
-59.9025148643
-75.9070803397
12.7247788813
-52.7844994362
-43.8051590408
-19.0418717457
-13.2583180848
-75.9204335390
-43.7026138316
-8.4493041118
-18.1165383457
-57.7074764461
-106.9830227934
-91.3502452675
-40.2760945381
-62.4579942542
-62.1856879546
-75.6492608171
-33.2648589283
-58.1159184397
-64.9330983830
-57.4022581073
-85.7224950396
-59.5498389926
-43.2438774993
-70.8361899686
-83.8806183139
-55.9472415565
-43.9410541047
-70.0403579235
-105.1745289353
20.5380847948
-74.0661230219
-8.2552147552
-36.7633216939
-52.9441539297
-58.1653050338
0.1389917144
-16.4415855107
-31.6314992819
-80.8719000428
-44.6349889492
-86.9365755630
-56.6173162453
-20.3132123288
-98.4698594176
-80.7328270142
-75.3248508141
-33.2144224396
-61.4114530296
-50.8830969411
-40.1205363671
-43.1571752666
-75.2563808618
-48.3926671058
12.1293906674
10.6197550318
-84.1903202839
-3.8942880812
-77.8527820471
-67.0629931629
-61.0046344750
-83.8243330778
-57.3360461179
-68.3132476126
-40.0690744797
-55.3507552056
-47.7824328745
-63.8253325370
-52.4861649290
-91.0366652229
-70.3944346042
-69.4338418267
-76.1453340252
-68.5410163831
-48.5109316275
-61.1322149208
-80.0331107030
-74.0999890260
-79.7134491226
-97.6353829214
-49.0738169931
-47.3021659222
-49.3626674633
-40.2065425789
-20.3714105756
-41.3625711431
-42.7944582258
-25.1804289699
-26.6123160527
-23.6898286762
-73.5902603467
-62.1896909639
-71.6594772261
-25.5677370723
-12.9809434625
-97.5838001681
-83.3205609381
-57.4310411842
-58.9166112113
-84.9294786229
-70.4466864526
-32.3946873942
6.3515789683
-46.7310130658
-51.8451019309
-52.5167456738
-73.9277646455
-44.4398332951
-75.5076903656
-50.2081943092
-43.8734695427
-18.7007474717
-54.2446952908
-67.4890133665
-80.1480132672
-44.2448996509
-51.2864008305
-64.2996475302
-81.8847190752
-82.0733281338
-61.2813620180
-62.1951143633
-17.7680399320
-78.7322606431
-79.7671325372
-32.4817641034
-75.8607742170
-50.1069726988
-64.4694913371
5.5841074771
-76.7950090125
-79.4243718921
-67.2086051123
-53.9417324966
-42.6944904554
-32.0265646834
-3.2810515895
2.3233590647
-45.2129204859
-84.4361005028
-58.5647434814
-49.3179379053
-41.5658573759
-75.9123419122
-58.2232324889
-55.8956192248
-37.8556330726
-82.3498233790
-57.4822115163
-31.4138074099
-20.2663371060
-102.4288361896
-65.4789654153
-96.9285259221
-87.5910653575
-8.1893972424
-57.5344941241
3.2957461002
-33.0237493356
-39.9955386579
-31.8177752142
-1.7465132286
-29.5401577176
-44.6147871711
-26.1563492575
-20.2268903004
-0.4822770510
-66.6378969501
-82.4693284040
6.4839502382
-83.0988831224
-63.8081749479
-71.9807876480
-61.3632175760
15.1577858573
-23.5111737401
-32.5319255959
-31.1455735696
-67.2230953083
-72.8385748692
-52.9471792012
-45.0379637309
-51.2411796153
-63.0594257477
-72.1476480906
-53.2270424432
-61.2426696575
-54.1620331403
-65.8119109124
-54.2210881429
-86.2702729257
-53.1968257275
7.1149343883
-68.8233010826
-111.3195241319
-72.7378550273
-73.4639333636
-40.9217882669
-108.1508709007
-86.7183321097
-41.8251149043
-76.7041946481
-44.8011654122
-55.9869124196
-63.5447421909
-21.7823442234
-83.3872723863
-100.8644189470
-40.7946576462
-61.5464892077
-62.2361034934
-94.6567541704
-41.9412401627
-57.5223136133
-28.3720539298
-71.3508772354
-99.2138072060
-36.5045358674
-74.3923826768
-80.7574962563
-31.8811031426
-80.7710571865
-29.1427326763
-89.4114814421
-58.1987722844
-35.2640267567
-91.7452634991
-62.6984378507
-15.4118143226
-9.9107759549
-21.2282501634
-38.8822937309
-33.2110674097
-77.1565673494
-79.6222130524
-44.7797584911
-71.5440563285
-30.9105744471
-107.7056740336
-49.9734146731
-76.9078831861
-39.1103967019
-64.3518510198
-67.5201744706
-83.7706666598
-45.0743821297
-65.8621772444
-43.7075377944
-20.9902794284
-65.4718277765
-96.2472644302
-73.9933040310
-48.5521570648
-47.4998066148
-79.5506964485
-74.6169304114
-47.8778804719
-68.6846502616
-54.4561455538
-97.7054661225
-53.4718489186
-85.5417900377
-98.9483667818
-26.1590956575
-81.5424560297
-78.1771868311
-55.1007150786
23.1338392065
-72.2637058189
-81.3354230491
-80.5738227032
-55.4095344691
-76.0548201360
-69.7987329880
-36.9913472838
-78.9680475909
-90.1877426229
-48.0256881999
-39.2032795757
-70.9876524467
-56.8612973789
-88.4047018321
-50.1850980848
-73.6799237377
-58.4689363699
-53.7313488898
-52.4910003625
-64.5196462261
-54.9891165665
-75.3897522634
-63.0258074626
-42.3781764429
-99.8304849147
-38.4948322522
-36.4964372457
-39.6547609365
-95.1647128588
-2.5776494354
1.5833713071
-101.6382312312
15.4037114019
-47.4249439153
-66.8995864267
-79.8083353865
-69.5222096901
-82.4753323162
-97.3967871345
-29.1022983822
-52.2228335287
-48.5315224059
-71.0407627432
-37.3008414122
16.5029604368
-71.0750375799
-14.7284322740
-44.8779165001
-100.4458031756
-58.2854404278
-44.6941538977
-70.7941286949
-91.4371088367
-48.1117465737
-94.7285114640
-54.0675426928
-61.3243340755
-28.2123956031
-107.9674497344
-50.9542003452
-62.5078437729
-70.7823160207
-32.9373840823
-91.5890858104
-35.4187797350
-36.9152366222
-59.0751415032
-5.4809205528
-75.9367567329
-19.8136639578
7.8824906868
-43.8637442403
7.9622216428
-12.8506414763
0.8261740644
-77.3848581720
-76.2873333547
-33.1293675784
-43.6679873696
-40.9963471409
-35.7243866563
-14.6157634834
-95.4801884744
-35.4562433039
-46.1066892685
-42.8422400301
-87.5331097605
-88.4078374668
-59.5895619589
-35.5200503122
-23.7676209740
-45.2398980184
-93.8937236449
-81.4653456356
-96.6546969608
-99.6919320116
12.9290883760
-43.8874164246
-41.9017452287
-81.3677698950
-9.0697634707
-54.8143015361
-50.9780577701
-47.5328859208
-40.7921071241
-81.0465099972
-33.1123363632
-100.4042462013
-47.8890574598
-98.7305822518
-95.6678436504
-66.0982469114
-66.7822814252
-55.5828365712
-0.9136763826
-64.4597998413
-51.7595782074
-50.6203799530
-44.7178090205
-79.2625507391
-108.3924945859
-39.5270937887
-25.3945029056
-37.1273420751
-60.6921742193
-62.0270648157
-58.8816558377
17.9354818393
-67.5156493326
-68.2615167740
-56.8400908341
-71.5496012067
-26.1031534752
-53.1791926081
-58.7977864298
-88.4618036570
22.2714125502
0.4427437387
-46.1407688523
-81.4217134617
-68.8343498395
-36.6139544067
-62.4656599117
-87.4223409370
-24.6827423476
-79.0901275100
-6.8848449201
-37.2370230388
-70.1588182281
-2.3812088284
-78.6848959728
-86.0701463086
-61.0786622083
-67.7982595029
-46.1071647165
-39.1958604456
-17.4920655815
-79.4603972889
-80.6571330989
-95.2666773957
-84.0563847063
-55.2065533473
-47.0162603281
-58.3165634748
-70.8659894448
-75.7363364014
-45.3796386846
-76.6136477826
-25.4600834536
-105.9190802541
-13.6376117543
-27.0596253723
-8.7143091620
-54.9037638972
-34.6470377221
-60.2804790851
-49.4657785525
-46.8686883308
-87.9517838134
-82.9208297570
-79.0449032301
-58.0773955433
-94.3841428756
-81.7123732432
-74.6456403294
-72.9244134432
-48.6961963452
-53.3725494644
-74.2272707087
-76.5879206058
-23.2307203773
-76.0824857274
-25.9758598481
-64.4620435464
-67.0975894266
-68.9488656477
-84.1439228660
-21.5792645398
-67.9175948318
-49.7714906592
-83.9364908687
-69.7608411387
-50.2064899726
-35.6056370007
-71.9665122991
-79.4343381107
-34.7130039182
-47.3408737324
-67.6841062434
-45.0607804531
-44.8027980726
-58.3604521954
-89.4036241392
-90.9428192437
-82.7381836615
-75.0920376973
-84.8796707727
-39.3996357295
-23.4348514485
-82.4037537142
-37.6211243162
-22.0271335406
-32.3314672594
-82.1830410664
-70.3474215865
-54.4642072962
-82.7638442771
-51.0664838139
-74.0184131301
-56.8676811447
-48.6169590316
-23.1856755591

3.2184354845
0.1635164107
-4.4634854132
-3.6728247218
6.1400242630
2.1749899245
-1.8219624170
5.3219620747
5.5071362383
5.0298413362
-5.2909744381
10.9503094757
1.9117761781
-0.6510405883
-4.5686098364
-1.1632511988
0.6604548005
1.8171873635
-1.3312874781
-4.2327180273
-0.1051331369
7.7632077519
1.9550108641
0.4697629282
-7.5777182427
0.5998781419
8.5751564287
6.3035054825
-6.1045854994
10.7969550067
-3.0866369228
-5.5339328115
-3.9959965822
3.0577438981
2.7646170740
-3.4444946036
-4.5364882330
-5.6906324523
-1.6850124860
-7.0841264875
13.6352757967
-2.3981789197
-4.3284331185
-1.0439869898
-8.7178806917
-5.1453392987
-2.8499341268
-2.7844770205
-4.8873233166
-5.8324551821
-0.9965919246
1.3564710746
6.9681116053
-1.5790973984
-3.0055877544
8.8413300636
0.7407807422
-0.3244514008
0.2103993065
2.7882517564
-0.2469805628
-3.4971115641
-5.0711460746
-3.8515085912
-4.3016828609
-1.6508469765
1.2423926670
-0.0255055253
0.0882675628
-2.2135965217
-0.3760551741
-1.5510913550
10.1660135712
0.1911119367
-2.8539448649
-0.2172079777
-0.3266642584
1.0954192438
-2.7618248510
-2.3575939553
-6.5714436949
-2.7296561619
-3.2613515666
-2.0414699573
2.3610502381
6.7030188658
0.1243830956
1.4466257248
4.0065929619
0.6267801677
0.1849122146
-2.5617656480
3.8005277125
2.5099010268
-2.3282648748
-1.9376948950
-2.0102470346
2.4215995166
-0.6863251514
1.4784726903
4.4584933130
-4.5550057597
6.2648189356
1.9817284787
-0.5619202067
5.5101488266
-3.8211502103
1.1991653209
2.9964887346
3.1503533938
-3.3400981990
-3.2501434766
-4.5883185186
-1.4680561399
-3.7411555821
-0.4003468400
-5.0086228351
7.4457500587
1.5469853039
3.5979201506
-3.0932282478
-2.7292209694
1.6053086789
-3.8086412604
-1.0671975326
-4.5527682769
-3.8163064743
-3.6314888962
0.1950918104
-0.5400211882
-4.2696825586
-2.0996604492
0.0768847752
-9.6731891557
7.6342546858
6.1972363254
-1.5335682120
-1.2076995609
3.2423017988
-2.2693879544
-0.2814407611
-0.3873464092
-1.2972500805
-0.9074259880
-2.1292221931
2.5319111239
1.2917043432
1.8470310644
-0.3169324767
4.2197228097
-1.0934990985
-0.4058277592
2.4499503383
-1.5187723428
-0.4020556303
1.0595304168
-7.2693469021
-2.2674596946
-2.2321275660
-0.3246970464
-1.1863328668
-3.8537661275
-4.5235151073
-9.2358896501
-9.0323817110
8.2453435191
3.2054086040
-6.6778287831
-1.9783629662
-8.8242657798
-2.0980761536
-6.8224000139
-0.4383900710
-9.1061485828
-1.8655489753
1.4889579843
-1.0757098800
4.0843200145
0.9636846490
3.1097138495
-0.3105384205
-8.5333210161
0.3416126094
-5.3566539889
-6.5991567077
-1.8568402144
-0.2850078853
-1.4273913431
6.1083627249
9.3918376490
-2.8053170743
5.3797163605
-4.5364079372
-4.9165209197
-1.2807366391
-4.0205467853
9.9361740372
-9.0025759771
1.8157424335
-0.6728097670
2.1373764368
-1.5479718023
-1.4802558809
-1.1126816207
0.6981282315
-1.6383452504
-7.3565263491
-1.9604984521
-0.4574740177
6.2336367549
-1.5089225385
-0.3750661078
-0.5738651887
-6.4157442259
-5.9338019782
-4.2962376524
-0.3371259929
3.0147039157
1.9868519257
0.2458259836
-0.6934479169
-3.5374851046
6.5241037003
-6.1392087130
-0.0656656457
-1.4369160153
1.7835762974
3.6930721541
11.8229716100
-4.9507604081
9.2933514370
-0.8095589534
0.4971595250
-4.0453453337
-4.7566803195
4.3993552087
-1.7619515490
-3.3205501994
-2.1560762927
4.1900584945
3.5406906765
4.7014603725
1.3645477758
5.0914895777
-1.8615573693
10.2939792956
5.2258912714
-3.9886483815
-0.7025213738
2.9035519416
-4.7566574645
-3.5937509895
-2.6993044069
-3.7840521953
-2.2555271044
-2.3516307870
2.2341587101
2.1668764501
9.1497682474
2.3711250381
8.1909830961
5.2923915816
-1.4177260114
-2.2304230881
-3.7915019713
0.0423620606
-0.4228301068
-0.8894966026
0.5868375684
6.8431893854
-6.8922949305
9.8683030150
-0.6958023100
6.1228093917
1.9851061582
-4.0198259922
-3.9968435463
-1.0833201391
-3.5412880265
0.7492292755
1.5589141119
-1.2763810481
-3.5398343165
-0.9542944534
-0.2504778206
2.9705391635
-3.2302214858
-3.5198519831
-3.1700893287
-8.3976658127
-0.8075867645
-3.8555072137
0.1021428614
-2.7903954412
0.9457770780
0.9946390642
5.0844977451
-1.2653711122
5.0733987219
-0.4694711272
-0.3439912397
-5.3471762087
-0.2764188580
-2.7687405839
-1.5148730654
-1.4635402340
2.4575017282
-3.0466295972
0.4190757053
-1.0876662609
6.6795378021
-6.4557652806
6.3010438130
3.9270136069
-5.5311025180
-3.3265317049
2.7178866294
11.5931320759
-0.0697112726
7.5149675426
-4.6262211664
-2.3784874220
-4.9821754192
1.7280344434
1.1526888157
14.4995608976
5.3127403502
4.2217041023
-6.9872842431
4.4536592733
9.9216750458
6.2682372934
5.6879915935
-0.7942515674
-1.8883069518
1.0547067507
3.8653219850
-5.0272483121
-2.9746900349
0.6975568614
-3.8925036340
-2.5033665416
-4.9426184300
-1.5362040665
-1.9364936134
-2.7341903483
11.3225764732
-3.8168532169
-0.0453033628
-2.9799588622
-6.5236915577
-9.8261910034
-2.1837096363
-0.0993639729
0.4113854272
-2.3945812132
0.7576803739
-10.2187122844
7.9733832731
-0.9096655439
5.8861295060
1.4021274536
-0.1693499169
-8.0720334949
-0.6120588176
-9.1179957642
0.3951766048
-6.6610088606
1.9526902967
-3.4282918432
1.9065175747
4.6732777733
-0.5851796941
-4.4740542464
-5.5315233320
5.0262394916
-0.8257682107
3.5746064865
-3.1574936298
1.9639249922
4.1883580645
-2.0657591622
-1.7218095395
1.8711366338
-0.8044329553
-1.3291545481
-6.3704855958
0.2920049450
0.0739996385
-2.6903000378
-5.3633204265
-3.9594600566
2.8885139783
4.3476158718
2.7221395359
4.1812414294
-1.6075379593
-3.5517523603
-7.2695253290
2.9441659799
6.1269110630
1.4385412972
-0.5670281116
0.3589403057
-0.8976924396
-0.9602186710
0.7698823581
3.6414584024
-5.4729032242
0.3707545703
-6.7439669216
-2.8647637784
5.7950309662
1.5672742652
-8.6810474343
1.8948816556
-5.3134241742
8.9157484380
-0.4405015669
-5.2220783416
-1.9516455176
-0.5097046294
-2.9596957408
6.5489812333
2.5335642146
-1.2511617663
-0.1807177148
-1.9167621150
-2.3247314136
6.3937418588
1.6951185441
1.7153327496
-3.2983386866
1.4096078476
-4.8506098155
-3.6147813907
-7.7882584612
-1.5597273605
9.1276572739
-1.5712677953
1.8417264617
8.0457457844
8.1099742093
-6.0776991404
-1.6919172118
9.9606275304
-1.9007229069
-2.8856063806
-3.4271913187
2.8885367649
-0.6130769400
-1.0926606105
4.5623667965
-4.0686949826
-0.0435694435
-2.3773159147
-2.5186120469
4.5989999017
-3.4605028990
-5.5411273873
-2.8783429811
-8.4502919089
-0.1302192830
-9.2345026831
3.6652180546
-7.3522665251
-1.1285137717
6.4078981834
4.9249590446
-4.6806944905
-6.7480098807
-3.2648312886
-1.6252402511
9.3543803146
-2.5674229460
-2.9795169802
-6.3593279593
6.3855611726
-1.3731533746
-0.0336107406
-2.4359751146
-2.5308329107
2.0536352743
-3.0776587634
0.2235088979
2.8823527532
1.4037307529
4.0594301969
4.1361736218
-4.7317518914
8.0545585972
9.9288493171
5.8820174805
7.7202294501
6.0410506340
4.5329251535
6.4314118509
4.2814149379
9.8303331011
-0.2457124497
-5.6885815138
-0.9937116960
-5.7720877602
-0.1916258324
-3.4822923678
-5.0388542281
-7.6303443390
0.0134381205
4.8361534923
6.5850410215
3.5566827116
4.0280273489
-5.5832040480
9.3889598150
-10.3610446958
-3.1426377812
-2.8532078478
4.8245273325
2.3325105464
4.3753925666
1.3750738687
-4.6320566651
-0.5887231015
2.5777619473
-3.8497676737
-2.4176619470
-7.1220285009
1.5703579446
-0.4414927820
1.9134982628
0.6631495696
-0.6837990016
3.9548161172
2.3766292780
-3.0940141083
8.9722311922
5.1573638116
9.6484908689
11.7894675697
-3.0711506302
2.5036471202
-6.3140841759
-4.2795615212
2.7757621655
2.3912284234
-0.9072062167
-1.8585132901
-1.1494794635
-4.0672533229
-4.5704435025
-1.2932888876
-6.7732536873
-1.1121544420
-0.4702918137
-1.1204787221
-3.2233993729
14.6060571314
-0.3488484091
-1.6721036263
12.6372168180
3.5641969643
-1.5745466420
-2.0769206346
-0.5216925286
-0.5863563789
-3.8313400859
0.1889397518
-3.6809958783
-4.6883993365
-2.6913312295
-0.3921188375
-7.8930607000
-2.9893985283
3.1401992335
-2.8980570158
12.5604092793
5.5769228130
-0.5962137533
1.4279471126
1.0176846856
0.3486934008
-3.2547266614
-0.8283033505
-0.4263839998
-5.7211541807
-2.5324257416
-1.7337639629
-0.3678383894
-3.8163122354
-3.6336825127
-1.2617365772
-4.0697767103
-5.7235133094
1.3791111471
0.6216255655
-3.9968926408
0.3111144092
-2.0685800987
-1.4882218417
4.4101053964
5.5465589984
-3.0507979445
0.4786210033
6.0632795321
0.3585631163
-4.6696064516
2.0560410035
3.3174128125
7.9554700456
2.6577018388
-7.1132860991
-0.1673057025
2.8839728208
-0.2246880117
-2.6966579537
-1.3525681068
-1.9322220059
-6.4014588829
0.2473449892
-7.3728225781
-1.4237199769
2.2248539810
0.4301490805
-0.0056176671
-2.7975282023
-3.0701544479
-1.9197471138
-0.5084181559
1.2066708984
-0.2401351319
-3.0734382124
-1.5224851449
-3.8788633946
0.1136793728
-4.7552568529
-2.6683455008
-0.1813369750
-6.2996050282
-0.2460008252
1.1708628184
-1.8213036334
0.1186595943
-2.1710197069
-8.9169619240
-4.6868506307
3.7208584094
4.0927239899
7.1523309081
7.4201755230
6.9606637078
-4.8178824403
-1.5896178858
7.5657927599
6.6719721272
-0.2403803214
-5.8322549906
0.8363229010
-0.5485910328
8.3680399642
9.0242930297
9.5825464585
0.9843559996
7.5648616999
0.3042271409
-3.3606587249
-5.5004102692
-4.6076621633
7.8713108498
5.6769830502
-7.3402942602
7.9401496385
-0.8662079158
-1.1781689822
-3.2038908915
7.5631274065
-0.1604293783
6.7097546147
-3.9064909781
-3.0752680988
-2.2415916059
2.6709954805
-3.0034971150
-0.1609676056
-4.5676245402
-2.1438608493
-2.5646908869
-0.7639371111
0.2713565188
-2.7508979718
-6.2082846366
-2.0674055814
1.0821256021
-0.6557377082
-0.8733671062
1.1003822219
-1.2263774463
-5.3484576454
5.1324627250
-3.5218481115
4.0177377894
-2.9499109214
-2.2394411092
-6.3317281347
-1.1195551941
0.9960011504
2.4041189269
0.6786403292
-2.8801808781
-1.6474349369
0.3341657331
-0.2244570911
2.8378352789
1.7405678048
-3.4856347713
0.6409753632
-3.8291693922
4.8453717115
3.8560533769
-4.0313595831
-5.2654339819
-2.0018610210
-0.3539807694
6.0124499466
9.9168947578
-4.6487686385
9.9140049843
7.0380822372
1.0454550799
0.5919375856
-6.3126941646
-5.0837238369
-6.5041920909
10.8148365219
8.2636194804
-8.4357485843
-4.9318531396
1.6955408045
1.5842019437
5.6674564357
0.5769889389
13.0860307458
6.8841171027
-1.1134709089
-5.9408632672
2.7325484647
-2.8024928145
-6.0396281313
-4.0001415742
-4.5985336999
-5.5035753042
-1.0972686639
-5.4427521374
-6.5376916604
-8.4258833922
-8.1556165478
-6.8138596432
-5.4007924393
-1.4397983473
11.8702062246
8.5238723704
11.9978067236
1.6736857137
-2.4749899908
0.6526112823
-2.4797133116
-2.7483360071
4.8935513225
-3.8940764232
10.4793688421
2.8252680573
9.0863464546
-0.3621658202
3.8469874394
2.1271632507
-1.9661741771
2.5679352295
-2.8084331540
1.0740806727
-1.7139078272
-2.8067669328
2.6340761405
-0.9888520743
-1.9370202715
5.5502652643
-0.4516905599
-0.7251629115
7.9536497663
-1.1314064406
-3.9860344395
-5.5609830905
-3.6020725441
-1.0631565862
3.2411092137
0.1012099024
-8.3773183702
0.2965031540
3.1930901483
5.3932573342
-1.4198227400
-3.3082009339
2.0707896515
-0.5508280522
2.2883596975
-7.6533821147
4.0929696521
-0.1947877806
0.0314214706

194 88 89 15 
257 248 253 112 
110 274 268 269 
110 105 91 269 
14 186 87 13 
274 114 115 136 
229 267 269 275 
160 170 273 141 
164 127 122 258 
182 160 273 161 
269 110 267 268 
210 234 85 245 
272 182 265 273 
104 112 265 113 
268 274 223 269 
261 89 20 277 
244 233 250 275 
151 158 150 258 
166 38 165 123 
123 166 128 262 
101 86 108 263 
199 271 270 201 
260 127 137 135 
93 92 109 271 
143 268 267 97 
138 260 137 135 
205 270 201 199 
170 66 50 51 
206 143 267 139 
201 270 193 210 
274 259 223 269 
166 123 128 39 
261 118 117 195 
162 272 161 176 
272 177 176 162 
132 260 133 262 
154 140 96 241 
196 203 33 119 
69 238 171 68 
90 268 145 97 
71 10 76 85 
260 123 135 133 
274 155 145 146 
183 266 265 263 
40 65 121 167 
119 278 20 120 
262 123 260 133 
183 264 265 172 
179 166 262 167 
121 262 120 133 
238 253 254 265 
270 275 269 109 
231 270 226 230 
179 266 184 263 
197 278 120 20 
270 201 271 211 
127 123 260 165 
136 259 274 17 
238 253 265 237 
259 134 136 130 
266 99 263 260 
110 274 269 91 
225 214 206 267 
110 274 91 90 
183 168 173 264 
173 190 263 264 
248 275 250 249 
235 248 246 103 
12 86 190 100 
1 16 276 279 
99 266 104 102 
274 279 155 147 
270 210 234 193 
195 261 200 202 
183 173 263 264 
266 99 260 102 
86 192 197 11 
248 275 249 103 
262 132 99 101 
259 92 91 18 
121 192 167 65 
181 179 184 263 
261 131 116 117 
117 30 29 221 
129 274 17 136 
270 271 199 88 
248 275 103 112 
146 26 208 124 
164 127 258 165 
266 180 265 176 
106 272 265 273 
151 21 276 1 
258 17 137 126 
273 236 237 252 
131 277 261 20 
116 117 29 221 
105 92 269 109 
236 273 243 252 
108 264 265 263 
175 171 237 68 
276 125 149 159 
278 119 277 203 
125 17 126 134 
16 258 126 17 
209 116 29 221 
212 261 213 202 
229 268 269 267 
30 195 80 213 
175 236 237 273 
272 182 273 161 
196 197 120 204 
82 214 232 81 
267 241 96 251 
171 180 265 172 
56 139 81 46 
209 115 259 220 
179 262 169 174 
201 194 199 271 
260 177 165 178 
231 270 269 271 
140 242 96 241 
166 179 262 260 
136 259 130 115 
277 119 278 20 
220 274 115 259 
60 208 219 146 
139 232 81 46 
267 241 251 240 
156 95 242 243 
242 95 156 140 
267 110 269 105 
180 183 265 172 
272 102 258 98 
97 143 24 96 
150 45 122 163 
51 160 52 141 
275 229 267 215 
261 19 20 93 
157 160 273 141 
235 247 187 74 
87 235 100 187 
266 106 265 104 
30 195 213 117 
209 261 259 116 
259 19 131 261 
258 276 126 151 
151 149 159 276 
18 138 137 134 
272 95 273 106 
270 246 234 249 
192 86 197 262 
263 104 99 266 
276 125 159 16 
106 112 107 265 
258 94 158 272 
147 274 124 146 
32 203 119 33 
261 131 259 116 
95 272 94 106 
153 140 156 95 
86 101 262 263 
192 64 191 169 
229 268 267 225 
145 207 219 59 
144 207 218 268 
205 270 185 193 
127 38 165 37 
192 121 35 65 
138 260 135 133 
121 65 40 35 
262 179 263 260 
218 268 225 267 
264 108 86 263 
24 143 154 96 
62 190 63 173 
233 244 216 275 
106 95 273 107 
146 26 124 41 
156 95 243 273 
272 182 161 176 
257 112 255 250 
40 121 128 167 
266 184 180 176 
131 20 132 119 
111 97 96 267 
73 235 187 74 
255 275 250 112 
261 92 269 259 
170 66 67 236 
88 14 199 205 
276 21 16 1 
202 271 212 261 
131 277 20 119 
34 196 120 204 
190 173 263 191 
168 62 173 189 
210 270 245 217 
207 144 58 145 
27 114 208 26 
220 274 208 114 
162 272 258 158 
279 155 159 1 
195 277 200 261 
272 106 102 98 
186 87 187 235 
157 95 94 22 
274 207 219 145 
157 272 94 95 
235 186 73 187 
275 217 245 270 
94 16 258 276 
103 264 108 100 
273 106 107 265 
97 110 267 111 
121 34 120 204 
240 232 267 139 
190 86 264 100 
195 80 213 202 
261 195 213 202 
248 257 250 112 
209 222 220 259 
181 173 169 263 
125 149 159 148 
121 34 204 35 
209 261 222 259 
179 266 178 184 
222 261 209 228 
246 234 72 185 
210 234 193 85 
23 140 96 154 
270 210 245 234 
255 257 256 107 
38 127 165 123 
225 214 267 215 
206 214 232 267 
276 125 16 126 
272 157 94 152 
244 214 215 267 
275 244 215 267 
274 129 147 124 
221 261 213 228 
175 170 273 182 
153 157 273 141 
66 170 50 236 
103 264 235 254 
245 84 85 217 
170 175 236 67 
173 168 189 264 
113 253 265 254 
127 260 137 258 
168 62 189 61 
251 240 232 267 
235 264 247 254 
188 75 247 239 
132 260 262 99 
105 112 275 111 
271 200 261 202 
93 88 89 271 
125 149 44 126 
127 260 258 165 
45 126 150 122 
164 177 258 163 
259 19 261 92 
131 20 261 19 
90 25 279 16 
209 115 220 28 
259 116 130 115 
16 258 17 98 
175 171 180 265 
41 147 42 124 
97 268 267 110 
129 125 148 43 
266 106 104 102 
150 258 163 122 
156 153 273 141 
38 166 39 123 
214 244 232 267 
99 262 263 260 
262 179 169 263 
136 259 115 274 
129 279 274 147 
235 264 103 100 
154 47 48 241 
258 94 272 98 
263 104 266 265 
53 142 161 162 
192 262 169 191 
244 251 232 267 
251 275 111 267 
143 268 97 144 
86 101 197 262 
179 181 169 263 
89 15 3 200 
255 112 107 111 
146 26 41 60 
259 138 134 130 
164 127 165 37 
258 276 151 94 
127 258 137 122 
103 264 113 108 
243 242 256 107 
192 121 167 262 
153 157 22 95 
21 158 94 152 
23 153 22 95 
173 190 63 191 
260 177 258 165 
183 181 263 173 
27 220 115 28 
123 166 260 165 
126 258 150 122 
219 60 146 59 
51 66 50 7 
88 194 89 271 
121 262 133 128 
195 277 261 118 
129 279 147 159 
210 245 85 217 
275 103 112 109 
205 88 270 199 
262 20 120 132 
251 275 267 244 
232 206 267 139 
180 182 265 176 
73 246 72 186 
76 210 193 85 
227 222 228 271 
186 270 246 185 
218 268 224 225 
162 54 158 163 
36 45 55 163 
186 270 185 205 
186 270 205 87 
261 93 20 89 
278 89 277 20 
261 222 269 271 
88 270 109 87 
30 195 117 31 
173 169 263 191 
261 117 221 213 
47 240 139 46 
17 259 274 91 
154 240 267 139 
116 261 117 221 
259 138 130 131 
19 138 259 131 
201 270 210 211 
192 121 262 204 
272 157 273 95 
19 101 132 20 
75 8 70 61 
144 25 97 24 
140 23 95 153 
142 272 158 152 
129 279 16 274 
17 259 91 18 
252 243 107 273 
40 4 35 65 
45 150 55 163 
18 260 99 102 
158 150 163 55 
220 27 115 114 
209 115 28 116 
218 144 143 57 
209 115 116 259 
144 207 58 218 
216 244 215 275 
207 274 223 268 
271 231 222 269 
25 279 16 1 
266 177 258 260 
17 134 137 126 
197 3 278 11 
90 274 155 145 
274 90 268 145 
246 270 234 185 
190 12 100 198 
160 157 273 161 
169 173 63 191 
186 13 187 87 
157 160 52 161 
132 260 99 138 
138 99 19 18 
272 182 176 265 
192 86 191 11 
266 183 184 263 
268 90 110 97 
138 260 18 137 
259 134 18 17 
99 132 138 19 
192 121 204 35 
208 274 219 146 
236 156 273 141 
170 236 273 141 
156 236 50 141 
236 170 50 141 
242 140 48 241 
276 21 94 16 
274 207 145 268 
177 272 258 162 
125 17 134 129 
49 156 243 50 
264 108 265 113 
100 235 87 103 
20 197 278 11 
243 242 107 95 
266 272 176 265 
186 270 87 246 
145 274 146 219 
27 220 208 114 
166 39 128 167 
274 279 16 90 
54 158 163 55 
53 157 161 142 
39 40 128 167 
272 177 258 266 
192 262 167 174 
164 36 122 37 
140 49 242 48 
192 64 169 174 
62 190 173 189 
13 100 198 187 
187 264 188 247 
258 164 163 122 
142 162 54 158 
264 190 100 198 
86 190 263 191 
235 264 100 187 
259 222 223 269 
80 79 213 202 
157 272 273 161 
272 177 266 176 
264 247 254 239 
266 177 184 176 
188 168 189 61 
169 64 191 63 
118 203 119 32 
258 16 94 98 
205 270 193 201 
192 86 262 191 
233 249 250 275 
194 79 202 212 
79 212 213 202 
118 277 119 203 
146 26 60 208 
234 71 193 85 
255 275 112 111 
187 264 198 188 
214 244 82 232 
186 246 72 185 
258 17 98 102 
3 20 278 11 
233 216 83 84 
47 240 241 154 
157 153 273 95 
265 238 172 264 
9 56 81 46 
136 129 134 17 
105 275 267 111 
143 56 139 206 
92 105 269 91 
143 268 144 218 
274 208 124 146 
58 207 145 59 
274 114 136 124 
145 219 146 59 
242 255 256 107 
276 125 126 149 
129 274 136 124 
274 223 208 219 
274 207 223 219 
220 274 223 208 
155 274 147 146 
129 43 148 42 
96 95 242 140 
242 95 96 107 
118 203 32 195 
194 88 199 271 
92 261 93 19 
86 197 20 11 
259 274 91 269 
30 195 31 80 
209 261 221 228 
69 238 172 171 
235 246 73 186 
53 142 162 54 
272 142 158 162 
158 258 163 150 
151 258 150 126 
267 241 240 154 
227 212 271 228 
212 227 271 211 
212 261 271 228 
270 234 185 193 
249 270 245 234 
245 275 270 249 
233 216 84 245 
270 231 275 230 
194 79 212 78 
30 117 213 221 
267 241 154 96 
105 112 109 275 
56 143 57 206 
273 95 243 107 
264 238 172 239 
110 105 267 111 
143 268 218 267 
257 256 107 252 
222 231 271 227 
127 164 122 37 
245 275 249 233 
245 275 233 216 
75 61 70 239 
270 271 226 211 
144 97 143 24 
242 255 96 241 
255 242 96 107 
177 162 258 163 
88 93 109 271 
170 175 273 236 
260 17 137 258 
75 188 61 239 
86 101 20 197 
271 270 269 109 
131 20 19 132 
259 92 269 91 
218 143 267 206 
129 279 159 16 
142 157 272 152 
259 134 17 136 
231 229 269 275 
222 261 269 259 
125 17 129 16 
270 231 269 275 
274 90 17 91 
125 149 148 43 
129 147 148 159 
149 125 44 43 
45 36 55 2 
238 264 254 239 
142 272 161 162 
225 218 267 206 
240 47 139 154 
53 157 52 161 
236 156 243 273 
112 106 104 265 
172 238 265 171 
262 86 263 191 
240 232 139 46 
183 168 264 172 
112 257 255 107 
143 154 96 267 
16 159 276 279 
112 257 107 252 
159 1 276 279 
75 188 247 74 
210 77 76 193 
13 12 198 100 
264 113 265 254 
71 76 193 85 
271 200 202 194 
264 103 113 254 
187 264 100 198 
253 248 254 113 
248 103 254 113 
56 206 81 139 
92 271 269 109 
206 214 81 232 
229 268 225 224 
105 275 269 267 
155 147 279 159 
144 218 58 57 
229 225 267 215 
222 261 228 271 
80 30 5 31 
77 201 193 210 
275 217 270 230 
112 252 107 265 
233 244 83 216 
229 216 215 275 
252 273 107 265 
132 260 138 133 
266 183 265 180 
86 12 191 11 
64 192 65 174 
235 264 187 247 
190 264 189 198 
166 260 165 178 
140 23 96 95 
25 155 279 1 
179 266 263 260 
168 188 189 264 
262 179 167 174 
186 87 235 246 
235 103 246 87 
90 25 155 279 
92 261 269 271 
259 19 92 18 
196 197 3 278 
270 88 109 271 
71 234 185 72 
140 154 48 241 
17 274 129 16 
88 205 270 87 
274 220 115 114 
118 131 261 117 
275 103 109 270 
26 114 208 124 
234 71 185 193 
270 103 246 249 
143 218 57 206 
260 17 258 102 
246 103 270 87 
86 108 264 100 
247 188 187 74 
278 89 20 3 
259 138 19 18 
143 154 267 139 
259 138 18 134 
32 118 195 31 
260 17 102 18 
156 236 243 50 
112 257 252 253 
263 104 265 108 
16 17 274 90 
274 279 90 155 
190 173 189 264 
99 101 108 263 
171 175 237 265 
266 272 265 106 
262 20 132 101 
262 20 101 197 
131 138 132 19 
108 104 265 113 
168 264 172 239 
99 132 19 101 
112 248 253 113 
61 168 70 239 
103 248 112 113 
253 252 265 237 
200 278 196 3 
260 17 18 137 
116 131 259 130 
207 144 145 268 
196 203 119 278 
41 147 124 146 
125 17 16 126 
147 129 42 124 
129 125 159 148 
147 129 148 42 
110 274 90 268 
101 99 262 263 
149 126 150 44 
258 126 137 122 
238 171 237 265 
70 168 172 239 
49 242 243 156 
266 272 106 102 
126 45 150 44 
164 36 163 122 
45 36 122 163 
87 13 187 100 
205 14 186 87 
112 253 252 265 
197 196 120 278 
119 196 278 120 
123 262 128 133 
88 14 15 199 
194 88 15 199 
97 143 96 267 
88 14 205 87 
116 209 29 28 
278 89 3 200 
197 262 120 204 
227 231 271 226 
209 261 116 221 
202 271 194 212 
206 232 81 139 
262 20 197 120 
220 222 223 259 
275 103 270 249 
274 220 223 259 
263 104 108 99 
188 168 239 264 
106 272 94 98 
22 21 94 152 
258 94 151 158 
248 275 112 250 
244 214 82 215 
131 277 119 118 
255 275 111 251 
248 103 249 246 
251 275 244 250 
235 248 103 254 
142 157 161 272 
275 105 269 109 
188 168 61 239 
125 129 159 16 
188 264 239 247 
162 158 258 163 
264 188 189 198 
179 166 178 260 
118 117 195 31 
266 179 178 260 
177 266 178 260 
271 200 194 89 
266 177 178 184 
200 278 203 196 
244 82 83 215 
216 244 83 215 
12 86 191 190 
6 60 41 26 
274 114 124 208 
255 251 96 241 
272 266 258 102 
251 255 96 111 
149 151 150 126 
160 157 52 141 
111 255 96 107 
69 70 172 239 
264 183 265 263 
117 261 195 213 
261 212 213 228 
201 194 211 78 
195 277 118 203 
271 227 226 211 
231 270 271 226 
261 93 89 271 
261 92 93 271 
121 262 128 167 
262 121 120 204 
196 119 33 120 
270 210 226 217 
270 217 226 230 
23 24 154 96 
111 251 267 96 
15 194 200 89 
252 273 265 237 
170 160 273 182 
153 95 156 273 
201 77 211 210 
170 51 141 160 
266 183 180 184 
34 196 33 120 
270 103 109 87 
195 277 203 200 
132 119 20 120 
131 277 118 261 
262 192 169 174 
262 132 120 133 
138 99 18 260 
262 166 128 167 
65 192 167 174 
268 144 145 97 
144 25 145 97 
25 90 145 97 
90 25 145 155 
157 22 94 152 
210 270 226 211 
194 201 211 271 
77 201 211 78 
17 18 137 134 
166 123 260 262 
266 260 258 102 
183 181 184 263 
200 278 277 203 
275 217 230 216 
238 69 172 239 
194 212 211 78 
175 182 273 265 
212 194 211 271 
112 253 265 113 
175 67 237 236 
182 175 180 265 
264 238 254 265 
231 229 275 230 
169 262 263 191 
271 200 89 261 
278 89 200 277 
151 21 158 94 
229 216 275 230 
261 89 277 200 
197 192 262 204 
275 217 216 245 
255 275 251 250 
151 276 159 1 
84 216 217 245 
229 231 269 224 
229 268 224 269 
268 223 224 269 
223 222 224 269 
231 222 269 224 
151 149 276 126 
49 140 242 156 
218 207 224 268 
252 243 256 107 
175 67 68 237 
170 51 50 141 
158 272 94 152 
151 21 94 276 
273 175 265 237 
190 86 263 264 
16 258 276 126 
268 207 224 223 
177 164 258 165 
123 127 260 135 
171 238 237 68 
